p cnf 7042 34081
1 2 3 4 5 6 0
-7 2 3 4 5 6 0
-8 2 3 4 5 6 0
-9 2 3 4 5 6 0
-10 2 3 4 5 6 0
11 12 13 14 15 16 0
-17 12 13 14 15 16 0
-18 12 13 14 15 16 0
-19 12 13 14 15 16 0
-20 12 13 14 15 16 0
21 22 23 24 25 26 0
-27 22 23 24 25 26 0
-28 22 23 24 25 26 0
-29 22 23 24 25 26 0
-30 22 23 24 25 26 0
31 32 33 34 35 36 0
-37 32 33 34 35 36 0
-38 32 33 34 35 36 0
-39 32 33 34 35 36 0
-40 32 33 34 35 36 0
41 42 43 44 45 46 0
-47 42 43 44 45 46 0
-48 42 43 44 45 46 0
-49 42 43 44 45 46 0
-50 42 43 44 45 46 0
51 52 53 54 55 56 0
-57 52 53 54 55 56 0
-58 52 53 54 55 56 0
-59 52 53 54 55 56 0
-60 52 53 54 55 56 0
61 62 63 64 65 66 0
-67 62 63 64 65 66 0
-68 62 63 64 65 66 0
-69 62 63 64 65 66 0
-70 62 63 64 65 66 0
71 72 73 74 75 76 0
-77 72 73 74 75 76 0
-78 72 73 74 75 76 0
-79 72 73 74 75 76 0
-80 72 73 74 75 76 0
81 82 83 84 85 86 0
-87 82 83 84 85 86 0
-88 82 83 84 85 86 0
-89 82 83 84 85 86 0
-90 82 83 84 85 86 0
91 92 93 94 95 96 0
-97 92 93 94 95 96 0
-98 92 93 94 95 96 0
-99 92 93 94 95 96 0
-100 92 93 94 95 96 0
101 102 103 104 105 106 0
-107 102 103 104 105 106 0
-108 102 103 104 105 106 0
-109 102 103 104 105 106 0
-110 102 103 104 105 106 0
111 112 113 114 115 116 0
-117 112 113 114 115 116 0
-118 112 113 114 115 116 0
-119 112 113 114 115 116 0
-120 112 113 114 115 116 0
121 122 123 124 125 126 0
-127 122 123 124 125 126 0
-128 122 123 124 125 126 0
-129 122 123 124 125 126 0
-130 122 123 124 125 126 0
131 132 133 134 135 136 0
-137 132 133 134 135 136 0
-138 132 133 134 135 136 0
-139 132 133 134 135 136 0
-140 132 133 134 135 136 0
141 142 143 144 145 146 0
-147 142 143 144 145 146 0
-148 142 143 144 145 146 0
-149 142 143 144 145 146 0
-150 142 143 144 145 146 0
151 152 153 154 155 156 0
-157 152 153 154 155 156 0
-158 152 153 154 155 156 0
-159 152 153 154 155 156 0
-160 152 153 154 155 156 0
161 162 163 164 165 166 0
-167 162 163 164 165 166 0
-168 162 163 164 165 166 0
-169 162 163 164 165 166 0
-170 162 163 164 165 166 0
171 172 173 174 175 176 0
-177 172 173 174 175 176 0
-178 172 173 174 175 176 0
-179 172 173 174 175 176 0
-180 172 173 174 175 176 0
181 182 183 184 185 186 0
-187 182 183 184 185 186 0
-188 182 183 184 185 186 0
-189 182 183 184 185 186 0
-190 182 183 184 185 186 0
191 192 193 194 195 196 0
-197 192 193 194 195 196 0
-198 192 193 194 195 196 0
-199 192 193 194 195 196 0
-200 192 193 194 195 196 0
201 202 203 204 205 206 0
-207 202 203 204 205 206 0
-208 202 203 204 205 206 0
-209 202 203 204 205 206 0
-210 202 203 204 205 206 0
211 212 213 214 215 216 0
-217 212 213 214 215 216 0
-218 212 213 214 215 216 0
-219 212 213 214 215 216 0
-220 212 213 214 215 216 0
221 222 223 224 225 226 0
-227 222 223 224 225 226 0
-228 222 223 224 225 226 0
-229 222 223 224 225 226 0
-230 222 223 224 225 226 0
231 232 233 234 235 236 0
-237 232 233 234 235 236 0
-238 232 233 234 235 236 0
-239 232 233 234 235 236 0
-240 232 233 234 235 236 0
241 242 243 244 245 246 0
-247 242 243 244 245 246 0
-248 242 243 244 245 246 0
-249 242 243 244 245 246 0
-250 242 243 244 245 246 0
-1 3 4 5 6 -2 0
7 3 4 5 6 -2 0
-8 3 4 5 6 -2 0
-9 3 4 5 6 -2 0
-10 3 4 5 6 -2 0
-11 12 13 14 16 -15 0
17 12 13 14 16 -15 0
-18 12 13 14 16 -15 0
-19 12 13 14 16 -15 0
-20 12 13 14 16 -15 0
-21 22 23 24 26 -25 0
27 22 23 24 26 -25 0
-28 22 23 24 26 -25 0
-29 22 23 24 26 -25 0
-30 22 23 24 26 -25 0
-31 32 33 34 36 -35 0
37 32 33 34 36 -35 0
-38 32 33 34 36 -35 0
-39 32 33 34 36 -35 0
-40 32 33 34 36 -35 0
-41 42 43 44 46 -45 0
47 42 43 44 46 -45 0
-48 42 43 44 46 -45 0
-49 42 43 44 46 -45 0
-50 42 43 44 46 -45 0
-51 52 53 54 56 -55 0
57 52 53 54 56 -55 0
-58 52 53 54 56 -55 0
-59 52 53 54 56 -55 0
-60 52 53 54 56 -55 0
-61 62 63 64 66 -65 0
67 62 63 64 66 -65 0
-68 62 63 64 66 -65 0
-69 62 63 64 66 -65 0
-70 62 63 64 66 -65 0
-71 72 73 74 76 -75 0
77 72 73 74 76 -75 0
-78 72 73 74 76 -75 0
-79 72 73 74 76 -75 0
-80 72 73 74 76 -75 0
-81 82 83 84 86 -85 0
87 82 83 84 86 -85 0
-88 82 83 84 86 -85 0
-89 82 83 84 86 -85 0
-90 82 83 84 86 -85 0
-91 92 93 94 96 -95 0
97 92 93 94 96 -95 0
-98 92 93 94 96 -95 0
-99 92 93 94 96 -95 0
-100 92 93 94 96 -95 0
-101 102 103 104 106 -105 0
107 102 103 104 106 -105 0
-108 102 103 104 106 -105 0
-109 102 103 104 106 -105 0
-110 102 103 104 106 -105 0
-111 112 113 114 116 -115 0
117 112 113 114 116 -115 0
-118 112 113 114 116 -115 0
-119 112 113 114 116 -115 0
-120 112 113 114 116 -115 0
-121 122 123 124 126 -125 0
127 122 123 124 126 -125 0
-128 122 123 124 126 -125 0
-129 122 123 124 126 -125 0
-130 122 123 124 126 -125 0
-131 132 133 134 136 -135 0
137 132 133 134 136 -135 0
-138 132 133 134 136 -135 0
-139 132 133 134 136 -135 0
-140 132 133 134 136 -135 0
-141 142 143 144 146 -145 0
147 142 143 144 146 -145 0
-148 142 143 144 146 -145 0
-149 142 143 144 146 -145 0
-150 142 143 144 146 -145 0
-151 152 153 154 156 -155 0
157 152 153 154 156 -155 0
-158 152 153 154 156 -155 0
-159 152 153 154 156 -155 0
-160 152 153 154 156 -155 0
-161 162 163 164 166 -165 0
167 162 163 164 166 -165 0
-168 162 163 164 166 -165 0
-169 162 163 164 166 -165 0
-170 162 163 164 166 -165 0
-171 172 173 174 176 -175 0
177 172 173 174 176 -175 0
-178 172 173 174 176 -175 0
-179 172 173 174 176 -175 0
-180 172 173 174 176 -175 0
-181 182 183 184 186 -185 0
187 182 183 184 186 -185 0
-188 182 183 184 186 -185 0
-189 182 183 184 186 -185 0
-190 182 183 184 186 -185 0
-191 192 193 194 196 -195 0
197 192 193 194 196 -195 0
-198 192 193 194 196 -195 0
-199 192 193 194 196 -195 0
-200 192 193 194 196 -195 0
-201 202 203 204 206 -205 0
207 202 203 204 206 -205 0
-208 202 203 204 206 -205 0
-209 202 203 204 206 -205 0
-210 202 203 204 206 -205 0
-211 212 213 214 216 -215 0
217 212 213 214 216 -215 0
-218 212 213 214 216 -215 0
-219 212 213 214 216 -215 0
-220 212 213 214 216 -215 0
-221 222 223 224 226 -225 0
227 222 223 224 226 -225 0
-228 222 223 224 226 -225 0
-229 222 223 224 226 -225 0
-230 222 223 224 226 -225 0
-231 232 233 234 236 -235 0
237 232 233 234 236 -235 0
-238 232 233 234 236 -235 0
-239 232 233 234 236 -235 0
-240 232 233 234 236 -235 0
-241 242 243 244 246 -245 0
247 242 243 244 246 -245 0
-248 242 243 244 246 -245 0
-249 242 243 244 246 -245 0
-250 242 243 244 246 -245 0
-1 2 4 5 6 -3 0
-7 2 4 5 6 -3 0
8 2 4 5 6 -3 0
-9 2 4 5 6 -3 0
-10 2 4 5 6 -3 0
-11 12 13 15 16 -14 0
-17 12 13 15 16 -14 0
18 12 13 15 16 -14 0
-19 12 13 15 16 -14 0
-20 12 13 15 16 -14 0
-21 22 23 25 26 -24 0
-27 22 23 25 26 -24 0
28 22 23 25 26 -24 0
-29 22 23 25 26 -24 0
-30 22 23 25 26 -24 0
-31 32 33 35 36 -34 0
-37 32 33 35 36 -34 0
38 32 33 35 36 -34 0
-39 32 33 35 36 -34 0
-40 32 33 35 36 -34 0
-41 42 43 45 46 -44 0
-47 42 43 45 46 -44 0
48 42 43 45 46 -44 0
-49 42 43 45 46 -44 0
-50 42 43 45 46 -44 0
-51 52 53 55 56 -54 0
-57 52 53 55 56 -54 0
58 52 53 55 56 -54 0
-59 52 53 55 56 -54 0
-60 52 53 55 56 -54 0
-61 62 63 65 66 -64 0
-67 62 63 65 66 -64 0
68 62 63 65 66 -64 0
-69 62 63 65 66 -64 0
-70 62 63 65 66 -64 0
-71 72 73 75 76 -74 0
-77 72 73 75 76 -74 0
78 72 73 75 76 -74 0
-79 72 73 75 76 -74 0
-80 72 73 75 76 -74 0
-81 82 83 85 86 -84 0
-87 82 83 85 86 -84 0
88 82 83 85 86 -84 0
-89 82 83 85 86 -84 0
-90 82 83 85 86 -84 0
-91 92 93 95 96 -94 0
-97 92 93 95 96 -94 0
98 92 93 95 96 -94 0
-99 92 93 95 96 -94 0
-100 92 93 95 96 -94 0
-101 102 103 105 106 -104 0
-107 102 103 105 106 -104 0
108 102 103 105 106 -104 0
-109 102 103 105 106 -104 0
-110 102 103 105 106 -104 0
-111 112 113 115 116 -114 0
-117 112 113 115 116 -114 0
118 112 113 115 116 -114 0
-119 112 113 115 116 -114 0
-120 112 113 115 116 -114 0
-121 122 123 125 126 -124 0
-127 122 123 125 126 -124 0
128 122 123 125 126 -124 0
-129 122 123 125 126 -124 0
-130 122 123 125 126 -124 0
-131 132 133 135 136 -134 0
-137 132 133 135 136 -134 0
138 132 133 135 136 -134 0
-139 132 133 135 136 -134 0
-140 132 133 135 136 -134 0
-141 142 143 145 146 -144 0
-147 142 143 145 146 -144 0
148 142 143 145 146 -144 0
-149 142 143 145 146 -144 0
-150 142 143 145 146 -144 0
-151 152 153 155 156 -154 0
-157 152 153 155 156 -154 0
158 152 153 155 156 -154 0
-159 152 153 155 156 -154 0
-160 152 153 155 156 -154 0
-161 162 163 165 166 -164 0
-167 162 163 165 166 -164 0
168 162 163 165 166 -164 0
-169 162 163 165 166 -164 0
-170 162 163 165 166 -164 0
-171 172 173 175 176 -174 0
-177 172 173 175 176 -174 0
178 172 173 175 176 -174 0
-179 172 173 175 176 -174 0
-180 172 173 175 176 -174 0
-181 182 183 185 186 -184 0
-187 182 183 185 186 -184 0
188 182 183 185 186 -184 0
-189 182 183 185 186 -184 0
-190 182 183 185 186 -184 0
-191 192 193 195 196 -194 0
-197 192 193 195 196 -194 0
198 192 193 195 196 -194 0
-199 192 193 195 196 -194 0
-200 192 193 195 196 -194 0
-201 202 203 205 206 -204 0
-207 202 203 205 206 -204 0
208 202 203 205 206 -204 0
-209 202 203 205 206 -204 0
-210 202 203 205 206 -204 0
-211 212 213 215 216 -214 0
-217 212 213 215 216 -214 0
218 212 213 215 216 -214 0
-219 212 213 215 216 -214 0
-220 212 213 215 216 -214 0
-221 222 223 225 226 -224 0
-227 222 223 225 226 -224 0
228 222 223 225 226 -224 0
-229 222 223 225 226 -224 0
-230 222 223 225 226 -224 0
-231 232 233 235 236 -234 0
-237 232 233 235 236 -234 0
238 232 233 235 236 -234 0
-239 232 233 235 236 -234 0
-240 232 233 235 236 -234 0
-241 242 243 245 246 -244 0
-247 242 243 245 246 -244 0
248 242 243 245 246 -244 0
-249 242 243 245 246 -244 0
-250 242 243 245 246 -244 0
-1 4 5 6 -2 -3 0
-7 4 5 6 -2 -3 0
-8 4 5 6 -2 -3 0
9 4 5 6 -2 -3 0
-10 4 5 6 -2 -3 0
-11 12 13 16 -15 -14 0
-17 12 13 16 -15 -14 0
-18 12 13 16 -15 -14 0
19 12 13 16 -15 -14 0
-20 12 13 16 -15 -14 0
-21 22 23 26 -25 -24 0
-27 22 23 26 -25 -24 0
-28 22 23 26 -25 -24 0
29 22 23 26 -25 -24 0
-30 22 23 26 -25 -24 0
-31 32 33 36 -35 -34 0
-37 32 33 36 -35 -34 0
-38 32 33 36 -35 -34 0
39 32 33 36 -35 -34 0
-40 32 33 36 -35 -34 0
-41 42 43 46 -45 -44 0
-47 42 43 46 -45 -44 0
-48 42 43 46 -45 -44 0
49 42 43 46 -45 -44 0
-50 42 43 46 -45 -44 0
-51 52 53 56 -55 -54 0
-57 52 53 56 -55 -54 0
-58 52 53 56 -55 -54 0
59 52 53 56 -55 -54 0
-60 52 53 56 -55 -54 0
-61 62 63 66 -65 -64 0
-67 62 63 66 -65 -64 0
-68 62 63 66 -65 -64 0
69 62 63 66 -65 -64 0
-70 62 63 66 -65 -64 0
-71 72 73 76 -75 -74 0
-77 72 73 76 -75 -74 0
-78 72 73 76 -75 -74 0
79 72 73 76 -75 -74 0
-80 72 73 76 -75 -74 0
-81 82 83 86 -85 -84 0
-87 82 83 86 -85 -84 0
-88 82 83 86 -85 -84 0
89 82 83 86 -85 -84 0
-90 82 83 86 -85 -84 0
-91 92 93 96 -95 -94 0
-97 92 93 96 -95 -94 0
-98 92 93 96 -95 -94 0
99 92 93 96 -95 -94 0
-100 92 93 96 -95 -94 0
-101 102 103 106 -105 -104 0
-107 102 103 106 -105 -104 0
-108 102 103 106 -105 -104 0
109 102 103 106 -105 -104 0
-110 102 103 106 -105 -104 0
-111 112 113 116 -115 -114 0
-117 112 113 116 -115 -114 0
-118 112 113 116 -115 -114 0
119 112 113 116 -115 -114 0
-120 112 113 116 -115 -114 0
-121 122 123 126 -125 -124 0
-127 122 123 126 -125 -124 0
-128 122 123 126 -125 -124 0
129 122 123 126 -125 -124 0
-130 122 123 126 -125 -124 0
-131 132 133 136 -135 -134 0
-137 132 133 136 -135 -134 0
-138 132 133 136 -135 -134 0
139 132 133 136 -135 -134 0
-140 132 133 136 -135 -134 0
-141 142 143 146 -145 -144 0
-147 142 143 146 -145 -144 0
-148 142 143 146 -145 -144 0
149 142 143 146 -145 -144 0
-150 142 143 146 -145 -144 0
-151 152 153 156 -155 -154 0
-157 152 153 156 -155 -154 0
-158 152 153 156 -155 -154 0
159 152 153 156 -155 -154 0
-160 152 153 156 -155 -154 0
-161 162 163 166 -165 -164 0
-167 162 163 166 -165 -164 0
-168 162 163 166 -165 -164 0
169 162 163 166 -165 -164 0
-170 162 163 166 -165 -164 0
-171 172 173 176 -175 -174 0
-177 172 173 176 -175 -174 0
-178 172 173 176 -175 -174 0
179 172 173 176 -175 -174 0
-180 172 173 176 -175 -174 0
-181 182 183 186 -185 -184 0
-187 182 183 186 -185 -184 0
-188 182 183 186 -185 -184 0
189 182 183 186 -185 -184 0
-190 182 183 186 -185 -184 0
-191 192 193 196 -195 -194 0
-197 192 193 196 -195 -194 0
-198 192 193 196 -195 -194 0
199 192 193 196 -195 -194 0
-200 192 193 196 -195 -194 0
-201 202 203 206 -205 -204 0
-207 202 203 206 -205 -204 0
-208 202 203 206 -205 -204 0
209 202 203 206 -205 -204 0
-210 202 203 206 -205 -204 0
-211 212 213 216 -215 -214 0
-217 212 213 216 -215 -214 0
-218 212 213 216 -215 -214 0
219 212 213 216 -215 -214 0
-220 212 213 216 -215 -214 0
-221 222 223 226 -225 -224 0
-227 222 223 226 -225 -224 0
-228 222 223 226 -225 -224 0
229 222 223 226 -225 -224 0
-230 222 223 226 -225 -224 0
-231 232 233 236 -235 -234 0
-237 232 233 236 -235 -234 0
-238 232 233 236 -235 -234 0
239 232 233 236 -235 -234 0
-240 232 233 236 -235 -234 0
-241 242 243 246 -245 -244 0
-247 242 243 246 -245 -244 0
-248 242 243 246 -245 -244 0
249 242 243 246 -245 -244 0
-250 242 243 246 -245 -244 0
-1 2 3 5 6 -4 0
-7 2 3 5 6 -4 0
-8 2 3 5 6 -4 0
-9 2 3 5 6 -4 0
10 2 3 5 6 -4 0
-11 12 14 15 16 -13 0
-17 12 14 15 16 -13 0
-18 12 14 15 16 -13 0
-19 12 14 15 16 -13 0
20 12 14 15 16 -13 0
-21 22 24 25 26 -23 0
-27 22 24 25 26 -23 0
-28 22 24 25 26 -23 0
-29 22 24 25 26 -23 0
30 22 24 25 26 -23 0
-31 32 34 35 36 -33 0
-37 32 34 35 36 -33 0
-38 32 34 35 36 -33 0
-39 32 34 35 36 -33 0
40 32 34 35 36 -33 0
-41 42 44 45 46 -43 0
-47 42 44 45 46 -43 0
-48 42 44 45 46 -43 0
-49 42 44 45 46 -43 0
50 42 44 45 46 -43 0
-51 52 54 55 56 -53 0
-57 52 54 55 56 -53 0
-58 52 54 55 56 -53 0
-59 52 54 55 56 -53 0
60 52 54 55 56 -53 0
-61 62 64 65 66 -63 0
-67 62 64 65 66 -63 0
-68 62 64 65 66 -63 0
-69 62 64 65 66 -63 0
70 62 64 65 66 -63 0
-71 72 74 75 76 -73 0
-77 72 74 75 76 -73 0
-78 72 74 75 76 -73 0
-79 72 74 75 76 -73 0
80 72 74 75 76 -73 0
-81 82 84 85 86 -83 0
-87 82 84 85 86 -83 0
-88 82 84 85 86 -83 0
-89 82 84 85 86 -83 0
90 82 84 85 86 -83 0
-91 92 94 95 96 -93 0
-97 92 94 95 96 -93 0
-98 92 94 95 96 -93 0
-99 92 94 95 96 -93 0
100 92 94 95 96 -93 0
-101 102 104 105 106 -103 0
-107 102 104 105 106 -103 0
-108 102 104 105 106 -103 0
-109 102 104 105 106 -103 0
110 102 104 105 106 -103 0
-111 112 114 115 116 -113 0
-117 112 114 115 116 -113 0
-118 112 114 115 116 -113 0
-119 112 114 115 116 -113 0
120 112 114 115 116 -113 0
-121 122 124 125 126 -123 0
-127 122 124 125 126 -123 0
-128 122 124 125 126 -123 0
-129 122 124 125 126 -123 0
130 122 124 125 126 -123 0
-131 132 134 135 136 -133 0
-137 132 134 135 136 -133 0
-138 132 134 135 136 -133 0
-139 132 134 135 136 -133 0
140 132 134 135 136 -133 0
-141 142 144 145 146 -143 0
-147 142 144 145 146 -143 0
-148 142 144 145 146 -143 0
-149 142 144 145 146 -143 0
150 142 144 145 146 -143 0
-151 152 154 155 156 -153 0
-157 152 154 155 156 -153 0
-158 152 154 155 156 -153 0
-159 152 154 155 156 -153 0
160 152 154 155 156 -153 0
-161 162 164 165 166 -163 0
-167 162 164 165 166 -163 0
-168 162 164 165 166 -163 0
-169 162 164 165 166 -163 0
170 162 164 165 166 -163 0
-171 172 174 175 176 -173 0
-177 172 174 175 176 -173 0
-178 172 174 175 176 -173 0
-179 172 174 175 176 -173 0
180 172 174 175 176 -173 0
-181 182 184 185 186 -183 0
-187 182 184 185 186 -183 0
-188 182 184 185 186 -183 0
-189 182 184 185 186 -183 0
190 182 184 185 186 -183 0
-191 192 194 195 196 -193 0
-197 192 194 195 196 -193 0
-198 192 194 195 196 -193 0
-199 192 194 195 196 -193 0
200 192 194 195 196 -193 0
-201 202 204 205 206 -203 0
-207 202 204 205 206 -203 0
-208 202 204 205 206 -203 0
-209 202 204 205 206 -203 0
210 202 204 205 206 -203 0
-211 212 214 215 216 -213 0
-217 212 214 215 216 -213 0
-218 212 214 215 216 -213 0
-219 212 214 215 216 -213 0
220 212 214 215 216 -213 0
-221 222 224 225 226 -223 0
-227 222 224 225 226 -223 0
-228 222 224 225 226 -223 0
-229 222 224 225 226 -223 0
230 222 224 225 226 -223 0
-231 232 234 235 236 -233 0
-237 232 234 235 236 -233 0
-238 232 234 235 236 -233 0
-239 232 234 235 236 -233 0
240 232 234 235 236 -233 0
-241 242 244 245 246 -243 0
-247 242 244 245 246 -243 0
-248 242 244 245 246 -243 0
-249 242 244 245 246 -243 0
250 242 244 245 246 -243 0
-5 -2 -6 0
-5 -3 -6 0
-5 -4 -6 0
-12 -13 -16 0
-12 -14 -16 0
-12 -15 -16 0
-22 -23 -26 0
-22 -24 -26 0
-22 -25 -26 0
-32 -33 -36 0
-32 -34 -36 0
-32 -35 -36 0
-42 -43 -46 0
-42 -44 -46 0
-42 -45 -46 0
-52 -53 -56 0
-52 -54 -56 0
-52 -55 -56 0
-62 -63 -66 0
-62 -64 -66 0
-62 -65 -66 0
-72 -73 -76 0
-72 -74 -76 0
-72 -75 -76 0
-82 -83 -86 0
-82 -84 -86 0
-82 -85 -86 0
-92 -93 -96 0
-92 -94 -96 0
-92 -95 -96 0
-102 -103 -106 0
-102 -104 -106 0
-102 -105 -106 0
-112 -113 -116 0
-112 -114 -116 0
-112 -115 -116 0
-122 -123 -126 0
-122 -124 -126 0
-122 -125 -126 0
-132 -133 -136 0
-132 -134 -136 0
-132 -135 -136 0
-142 -143 -146 0
-142 -144 -146 0
-142 -145 -146 0
-152 -153 -156 0
-152 -154 -156 0
-152 -155 -156 0
-162 -163 -166 0
-162 -164 -166 0
-162 -165 -166 0
-172 -173 -176 0
-172 -174 -176 0
-172 -175 -176 0
-182 -183 -186 0
-182 -184 -186 0
-182 -185 -186 0
-192 -193 -196 0
-192 -194 -196 0
-192 -195 -196 0
-202 -203 -206 0
-202 -204 -206 0
-202 -205 -206 0
-212 -213 -216 0
-212 -214 -216 0
-212 -215 -216 0
-222 -223 -226 0
-222 -224 -226 0
-222 -225 -226 0
-232 -233 -236 0
-232 -234 -236 0
-232 -235 -236 0
-242 -243 -246 0
-242 -244 -246 0
-242 -245 -246 0
6 -16 -251 0
16 -6 -251 0
251 -6 -16 0
6 16 251 0
-12 5 -252 0
12 -5 -252 0
252 -5 -12 0
5 12 252 0
4 -13 -253 0
13 -4 -253 0
253 -4 -13 0
4 13 253 0
3 -14 -254 0
14 -3 -254 0
254 -3 -14 0
3 14 254 0
2 -15 -255 0
15 -2 -255 0
255 -2 -15 0
2 15 255 0
-253 -251 -254 -255 -252 0
6 -26 -256 0
26 -6 -256 0
256 -6 -26 0
6 26 256 0
-22 5 -257 0
22 -5 -257 0
257 -5 -22 0
5 22 257 0
4 -23 -258 0
23 -4 -258 0
258 -4 -23 0
4 23 258 0
3 -24 -259 0
24 -3 -259 0
259 -3 -24 0
3 24 259 0
2 -25 -260 0
25 -2 -260 0
260 -2 -25 0
2 25 260 0
-259 -257 -258 -256 -260 0
6 -36 -261 0
36 -6 -261 0
261 -6 -36 0
6 36 261 0
-32 5 -262 0
32 -5 -262 0
262 -5 -32 0
5 32 262 0
4 -33 -263 0
33 -4 -263 0
263 -4 -33 0
4 33 263 0
3 -34 -264 0
34 -3 -264 0
264 -3 -34 0
3 34 264 0
2 -35 -265 0
35 -2 -265 0
265 -2 -35 0
2 35 265 0
-262 -261 -263 -264 -265 0
6 -46 -266 0
46 -6 -266 0
266 -6 -46 0
6 46 266 0
-42 5 -267 0
42 -5 -267 0
267 -5 -42 0
5 42 267 0
4 -43 -268 0
43 -4 -268 0
268 -4 -43 0
4 43 268 0
3 -44 -269 0
44 -3 -269 0
269 -3 -44 0
3 44 269 0
2 -45 -270 0
45 -2 -270 0
270 -2 -45 0
2 45 270 0
-270 -267 -269 -266 -268 0
6 -56 -271 0
56 -6 -271 0
271 -6 -56 0
6 56 271 0
-52 5 -272 0
52 -5 -272 0
272 -5 -52 0
5 52 272 0
4 -53 -273 0
53 -4 -273 0
273 -4 -53 0
4 53 273 0
3 -54 -274 0
54 -3 -274 0
274 -3 -54 0
3 54 274 0
2 -55 -275 0
55 -2 -275 0
275 -2 -55 0
2 55 275 0
-273 -271 -275 -272 -274 0
6 -66 -276 0
66 -6 -276 0
276 -6 -66 0
6 66 276 0
-62 5 -277 0
62 -5 -277 0
277 -5 -62 0
5 62 277 0
4 -63 -278 0
63 -4 -278 0
278 -4 -63 0
4 63 278 0
3 -64 -279 0
64 -3 -279 0
279 -3 -64 0
3 64 279 0
2 -65 -280 0
65 -2 -280 0
280 -2 -65 0
2 65 280 0
-277 -279 -280 -278 -276 0
6 -76 -281 0
76 -6 -281 0
281 -6 -76 0
6 76 281 0
-72 5 -282 0
72 -5 -282 0
282 -5 -72 0
5 72 282 0
4 -73 -283 0
73 -4 -283 0
283 -4 -73 0
4 73 283 0
3 -74 -284 0
74 -3 -284 0
284 -3 -74 0
3 74 284 0
2 -75 -285 0
75 -2 -285 0
285 -2 -75 0
2 75 285 0
-282 -285 -284 -281 -283 0
6 -86 -286 0
86 -6 -286 0
286 -6 -86 0
6 86 286 0
-82 5 -287 0
82 -5 -287 0
287 -5 -82 0
5 82 287 0
4 -83 -288 0
83 -4 -288 0
288 -4 -83 0
4 83 288 0
3 -84 -289 0
84 -3 -289 0
289 -3 -84 0
3 84 289 0
2 -85 -290 0
85 -2 -290 0
290 -2 -85 0
2 85 290 0
-288 -286 -289 -290 -287 0
6 -96 -291 0
96 -6 -291 0
291 -6 -96 0
6 96 291 0
-92 5 -292 0
92 -5 -292 0
292 -5 -92 0
5 92 292 0
4 -93 -293 0
93 -4 -293 0
293 -4 -93 0
4 93 293 0
3 -94 -294 0
94 -3 -294 0
294 -3 -94 0
3 94 294 0
2 -95 -295 0
95 -2 -295 0
295 -2 -95 0
2 95 295 0
-294 -292 -291 -295 -293 0
6 -106 -296 0
106 -6 -296 0
296 -6 -106 0
6 106 296 0
-102 5 -297 0
102 -5 -297 0
297 -5 -102 0
5 102 297 0
4 -103 -298 0
103 -4 -298 0
298 -4 -103 0
4 103 298 0
3 -104 -299 0
104 -3 -299 0
299 -3 -104 0
3 104 299 0
2 -105 -300 0
105 -2 -300 0
300 -2 -105 0
2 105 300 0
-300 -299 -298 -296 -297 0
6 -116 -301 0
116 -6 -301 0
301 -6 -116 0
6 116 301 0
-112 5 -302 0
112 -5 -302 0
302 -5 -112 0
5 112 302 0
4 -113 -303 0
113 -4 -303 0
303 -4 -113 0
4 113 303 0
3 -114 -304 0
114 -3 -304 0
304 -3 -114 0
3 114 304 0
2 -115 -305 0
115 -2 -305 0
305 -2 -115 0
2 115 305 0
-301 -303 -305 -302 -304 0
6 -126 -306 0
126 -6 -306 0
306 -6 -126 0
6 126 306 0
-122 5 -307 0
122 -5 -307 0
307 -5 -122 0
5 122 307 0
4 -123 -308 0
123 -4 -308 0
308 -4 -123 0
4 123 308 0
3 -124 -309 0
124 -3 -309 0
309 -3 -124 0
3 124 309 0
2 -125 -310 0
125 -2 -310 0
310 -2 -125 0
2 125 310 0
-307 -308 -306 -309 -310 0
6 -136 -311 0
136 -6 -311 0
311 -6 -136 0
6 136 311 0
-132 5 -312 0
132 -5 -312 0
312 -5 -132 0
5 132 312 0
4 -133 -313 0
133 -4 -313 0
313 -4 -133 0
4 133 313 0
3 -134 -314 0
134 -3 -314 0
314 -3 -134 0
3 134 314 0
2 -135 -315 0
135 -2 -315 0
315 -2 -135 0
2 135 315 0
-312 -315 -314 -311 -313 0
6 -146 -316 0
146 -6 -316 0
316 -6 -146 0
6 146 316 0
-142 5 -317 0
142 -5 -317 0
317 -5 -142 0
5 142 317 0
4 -143 -318 0
143 -4 -318 0
318 -4 -143 0
4 143 318 0
3 -144 -319 0
144 -3 -319 0
319 -3 -144 0
3 144 319 0
2 -145 -320 0
145 -2 -320 0
320 -2 -145 0
2 145 320 0
-318 -320 -316 -319 -317 0
6 -156 -321 0
156 -6 -321 0
321 -6 -156 0
6 156 321 0
-152 5 -322 0
152 -5 -322 0
322 -5 -152 0
5 152 322 0
4 -153 -323 0
153 -4 -323 0
323 -4 -153 0
4 153 323 0
3 -154 -324 0
154 -3 -324 0
324 -3 -154 0
3 154 324 0
2 -155 -325 0
155 -2 -325 0
325 -2 -155 0
2 155 325 0
-325 -322 -321 -324 -323 0
6 -166 -326 0
166 -6 -326 0
326 -6 -166 0
6 166 326 0
-162 5 -327 0
162 -5 -327 0
327 -5 -162 0
5 162 327 0
4 -163 -328 0
163 -4 -328 0
328 -4 -163 0
4 163 328 0
3 -164 -329 0
164 -3 -329 0
329 -3 -164 0
3 164 329 0
2 -165 -330 0
165 -2 -330 0
330 -2 -165 0
2 165 330 0
-327 -328 -326 -330 -329 0
6 -176 -331 0
176 -6 -331 0
331 -6 -176 0
6 176 331 0
-172 5 -332 0
172 -5 -332 0
332 -5 -172 0
5 172 332 0
4 -173 -333 0
173 -4 -333 0
333 -4 -173 0
4 173 333 0
3 -174 -334 0
174 -3 -334 0
334 -3 -174 0
3 174 334 0
2 -175 -335 0
175 -2 -335 0
335 -2 -175 0
2 175 335 0
-332 -331 -333 -334 -335 0
6 -186 -336 0
186 -6 -336 0
336 -6 -186 0
6 186 336 0
-182 5 -337 0
182 -5 -337 0
337 -5 -182 0
5 182 337 0
4 -183 -338 0
183 -4 -338 0
338 -4 -183 0
4 183 338 0
3 -184 -339 0
184 -3 -339 0
339 -3 -184 0
3 184 339 0
2 -185 -340 0
185 -2 -340 0
340 -2 -185 0
2 185 340 0
-338 -339 -340 -337 -336 0
6 -196 -341 0
196 -6 -341 0
341 -6 -196 0
6 196 341 0
-192 5 -342 0
192 -5 -342 0
342 -5 -192 0
5 192 342 0
4 -193 -343 0
193 -4 -343 0
343 -4 -193 0
4 193 343 0
3 -194 -344 0
194 -3 -344 0
344 -3 -194 0
3 194 344 0
2 -195 -345 0
195 -2 -345 0
345 -2 -195 0
2 195 345 0
-344 -343 -341 -342 -345 0
6 -206 -346 0
206 -6 -346 0
346 -6 -206 0
6 206 346 0
-202 5 -347 0
202 -5 -347 0
347 -5 -202 0
5 202 347 0
4 -203 -348 0
203 -4 -348 0
348 -4 -203 0
4 203 348 0
3 -204 -349 0
204 -3 -349 0
349 -3 -204 0
3 204 349 0
2 -205 -350 0
205 -2 -350 0
350 -2 -205 0
2 205 350 0
-347 -348 -350 -346 -349 0
6 -216 -351 0
216 -6 -351 0
351 -6 -216 0
6 216 351 0
-212 5 -352 0
212 -5 -352 0
352 -5 -212 0
5 212 352 0
4 -213 -353 0
213 -4 -353 0
353 -4 -213 0
4 213 353 0
3 -214 -354 0
214 -3 -354 0
354 -3 -214 0
3 214 354 0
2 -215 -355 0
215 -2 -355 0
355 -2 -215 0
2 215 355 0
-351 -352 -355 -354 -353 0
6 -226 -356 0
226 -6 -356 0
356 -6 -226 0
6 226 356 0
-222 5 -357 0
222 -5 -357 0
357 -5 -222 0
5 222 357 0
4 -223 -358 0
223 -4 -358 0
358 -4 -223 0
4 223 358 0
3 -224 -359 0
224 -3 -359 0
359 -3 -224 0
3 224 359 0
2 -225 -360 0
225 -2 -360 0
360 -2 -225 0
2 225 360 0
-359 -356 -358 -357 -360 0
6 -236 -361 0
236 -6 -361 0
361 -6 -236 0
6 236 361 0
-232 5 -362 0
232 -5 -362 0
362 -5 -232 0
5 232 362 0
4 -233 -363 0
233 -4 -363 0
363 -4 -233 0
4 233 363 0
3 -234 -364 0
234 -3 -364 0
364 -3 -234 0
3 234 364 0
2 -235 -365 0
235 -2 -365 0
365 -2 -235 0
2 235 365 0
-363 -362 -361 -365 -364 0
6 -246 -366 0
246 -6 -366 0
366 -6 -246 0
6 246 366 0
-242 5 -367 0
242 -5 -367 0
367 -5 -242 0
5 242 367 0
4 -243 -368 0
243 -4 -368 0
368 -4 -243 0
4 243 368 0
3 -244 -369 0
244 -3 -369 0
369 -3 -244 0
3 244 369 0
2 -245 -370 0
245 -2 -370 0
370 -2 -245 0
2 245 370 0
-367 -369 -366 -368 -370 0
16 -6 -371 0
6 -16 -371 0
-6 -16 371 0
6 16 371 0
12 -5 -372 0
-12 5 -372 0
-12 -5 372 0
5 12 372 0
13 -4 -373 0
4 -13 -373 0
-4 -13 373 0
4 13 373 0
14 -3 -374 0
3 -14 -374 0
-3 -14 374 0
3 14 374 0
15 -2 -375 0
2 -15 -375 0
-2 -15 375 0
2 15 375 0
-375 -374 -372 -373 -371 0
16 -26 -376 0
26 -16 -376 0
376 -16 -26 0
16 26 376 0
-22 12 -377 0
-12 22 -377 0
377 -12 -22 0
12 22 377 0
13 -23 -378 0
23 -13 -378 0
378 -13 -23 0
13 23 378 0
14 -24 -379 0
24 -14 -379 0
379 -14 -24 0
14 24 379 0
15 -25 -380 0
25 -15 -380 0
380 -15 -25 0
15 25 380 0
-376 -377 -379 -378 -380 0
16 -36 -381 0
36 -16 -381 0
381 -16 -36 0
16 36 381 0
-32 12 -382 0
-12 32 -382 0
382 -12 -32 0
12 32 382 0
13 -33 -383 0
33 -13 -383 0
383 -13 -33 0
13 33 383 0
14 -34 -384 0
34 -14 -384 0
384 -14 -34 0
14 34 384 0
15 -35 -385 0
35 -15 -385 0
385 -15 -35 0
15 35 385 0
-381 -383 -382 -385 -384 0
16 -46 -386 0
46 -16 -386 0
386 -16 -46 0
16 46 386 0
-42 12 -387 0
-12 42 -387 0
387 -12 -42 0
12 42 387 0
13 -43 -388 0
43 -13 -388 0
388 -13 -43 0
13 43 388 0
14 -44 -389 0
44 -14 -389 0
389 -14 -44 0
14 44 389 0
15 -45 -390 0
45 -15 -390 0
390 -15 -45 0
15 45 390 0
-388 -389 -387 -386 -390 0
16 -56 -391 0
56 -16 -391 0
391 -16 -56 0
16 56 391 0
-52 12 -392 0
-12 52 -392 0
392 -12 -52 0
12 52 392 0
13 -53 -393 0
53 -13 -393 0
393 -13 -53 0
13 53 393 0
14 -54 -394 0
54 -14 -394 0
394 -14 -54 0
14 54 394 0
15 -55 -395 0
55 -15 -395 0
395 -15 -55 0
15 55 395 0
-393 -392 -395 -391 -394 0
16 -66 -396 0
66 -16 -396 0
396 -16 -66 0
16 66 396 0
-62 12 -397 0
-12 62 -397 0
397 -12 -62 0
12 62 397 0
13 -63 -398 0
63 -13 -398 0
398 -13 -63 0
13 63 398 0
14 -64 -399 0
64 -14 -399 0
399 -14 -64 0
14 64 399 0
15 -65 -400 0
65 -15 -400 0
400 -15 -65 0
15 65 400 0
-396 -399 -397 -400 -398 0
16 -76 -401 0
76 -16 -401 0
401 -16 -76 0
16 76 401 0
-72 12 -402 0
-12 72 -402 0
402 -12 -72 0
12 72 402 0
13 -73 -403 0
73 -13 -403 0
403 -13 -73 0
13 73 403 0
14 -74 -404 0
74 -14 -404 0
404 -14 -74 0
14 74 404 0
15 -75 -405 0
75 -15 -405 0
405 -15 -75 0
15 75 405 0
-403 -402 -401 -404 -405 0
16 -86 -406 0
86 -16 -406 0
406 -16 -86 0
16 86 406 0
-82 12 -407 0
-12 82 -407 0
407 -12 -82 0
12 82 407 0
13 -83 -408 0
83 -13 -408 0
408 -13 -83 0
13 83 408 0
14 -84 -409 0
84 -14 -409 0
409 -14 -84 0
14 84 409 0
15 -85 -410 0
85 -15 -410 0
410 -15 -85 0
15 85 410 0
-406 -407 -408 -409 -410 0
16 -96 -411 0
96 -16 -411 0
411 -16 -96 0
16 96 411 0
-92 12 -412 0
-12 92 -412 0
412 -12 -92 0
12 92 412 0
13 -93 -413 0
93 -13 -413 0
413 -13 -93 0
13 93 413 0
14 -94 -414 0
94 -14 -414 0
414 -14 -94 0
14 94 414 0
15 -95 -415 0
95 -15 -415 0
415 -15 -95 0
15 95 415 0
-411 -412 -413 -414 -415 0
16 -106 -416 0
106 -16 -416 0
416 -16 -106 0
16 106 416 0
-102 12 -417 0
-12 102 -417 0
417 -12 -102 0
12 102 417 0
13 -103 -418 0
103 -13 -418 0
418 -13 -103 0
13 103 418 0
14 -104 -419 0
104 -14 -419 0
419 -14 -104 0
14 104 419 0
15 -105 -420 0
105 -15 -420 0
420 -15 -105 0
15 105 420 0
-416 -417 -418 -419 -420 0
16 -116 -421 0
116 -16 -421 0
421 -16 -116 0
16 116 421 0
-112 12 -422 0
-12 112 -422 0
422 -12 -112 0
12 112 422 0
13 -113 -423 0
113 -13 -423 0
423 -13 -113 0
13 113 423 0
14 -114 -424 0
114 -14 -424 0
424 -14 -114 0
14 114 424 0
15 -115 -425 0
115 -15 -425 0
425 -15 -115 0
15 115 425 0
-421 -422 -423 -424 -425 0
16 -126 -426 0
126 -16 -426 0
426 -16 -126 0
16 126 426 0
-122 12 -427 0
-12 122 -427 0
427 -12 -122 0
12 122 427 0
13 -123 -428 0
123 -13 -428 0
428 -13 -123 0
13 123 428 0
14 -124 -429 0
124 -14 -429 0
429 -14 -124 0
14 124 429 0
15 -125 -430 0
125 -15 -430 0
430 -15 -125 0
15 125 430 0
-426 -427 -428 -429 -430 0
16 -136 -431 0
136 -16 -431 0
431 -16 -136 0
16 136 431 0
-132 12 -432 0
-12 132 -432 0
432 -12 -132 0
12 132 432 0
13 -133 -433 0
133 -13 -433 0
433 -13 -133 0
13 133 433 0
14 -134 -434 0
134 -14 -434 0
434 -14 -134 0
14 134 434 0
15 -135 -435 0
135 -15 -435 0
435 -15 -135 0
15 135 435 0
-431 -432 -433 -434 -435 0
16 -146 -436 0
146 -16 -436 0
436 -16 -146 0
16 146 436 0
-142 12 -437 0
-12 142 -437 0
437 -12 -142 0
12 142 437 0
13 -143 -438 0
143 -13 -438 0
438 -13 -143 0
13 143 438 0
14 -144 -439 0
144 -14 -439 0
439 -14 -144 0
14 144 439 0
15 -145 -440 0
145 -15 -440 0
440 -15 -145 0
15 145 440 0
-436 -437 -438 -439 -440 0
16 -156 -441 0
156 -16 -441 0
441 -16 -156 0
16 156 441 0
-152 12 -442 0
-12 152 -442 0
442 -12 -152 0
12 152 442 0
13 -153 -443 0
153 -13 -443 0
443 -13 -153 0
13 153 443 0
14 -154 -444 0
154 -14 -444 0
444 -14 -154 0
14 154 444 0
15 -155 -445 0
155 -15 -445 0
445 -15 -155 0
15 155 445 0
-441 -442 -443 -444 -445 0
16 -166 -446 0
166 -16 -446 0
446 -16 -166 0
16 166 446 0
-162 12 -447 0
-12 162 -447 0
447 -12 -162 0
12 162 447 0
13 -163 -448 0
163 -13 -448 0
448 -13 -163 0
13 163 448 0
14 -164 -449 0
164 -14 -449 0
449 -14 -164 0
14 164 449 0
15 -165 -450 0
165 -15 -450 0
450 -15 -165 0
15 165 450 0
-446 -447 -448 -449 -450 0
16 -176 -451 0
176 -16 -451 0
451 -16 -176 0
16 176 451 0
-172 12 -452 0
-12 172 -452 0
452 -12 -172 0
12 172 452 0
13 -173 -453 0
173 -13 -453 0
453 -13 -173 0
13 173 453 0
14 -174 -454 0
174 -14 -454 0
454 -14 -174 0
14 174 454 0
15 -175 -455 0
175 -15 -455 0
455 -15 -175 0
15 175 455 0
-451 -452 -453 -454 -455 0
16 -186 -456 0
186 -16 -456 0
456 -16 -186 0
16 186 456 0
-182 12 -457 0
-12 182 -457 0
457 -12 -182 0
12 182 457 0
13 -183 -458 0
183 -13 -458 0
458 -13 -183 0
13 183 458 0
14 -184 -459 0
184 -14 -459 0
459 -14 -184 0
14 184 459 0
15 -185 -460 0
185 -15 -460 0
460 -15 -185 0
15 185 460 0
-456 -457 -458 -459 -460 0
16 -196 -461 0
196 -16 -461 0
461 -16 -196 0
16 196 461 0
-192 12 -462 0
-12 192 -462 0
462 -12 -192 0
12 192 462 0
13 -193 -463 0
193 -13 -463 0
463 -13 -193 0
13 193 463 0
14 -194 -464 0
194 -14 -464 0
464 -14 -194 0
14 194 464 0
15 -195 -465 0
195 -15 -465 0
465 -15 -195 0
15 195 465 0
-461 -462 -463 -464 -465 0
16 -206 -466 0
206 -16 -466 0
466 -16 -206 0
16 206 466 0
-202 12 -467 0
-12 202 -467 0
467 -12 -202 0
12 202 467 0
13 -203 -468 0
203 -13 -468 0
468 -13 -203 0
13 203 468 0
14 -204 -469 0
204 -14 -469 0
469 -14 -204 0
14 204 469 0
15 -205 -470 0
205 -15 -470 0
470 -15 -205 0
15 205 470 0
-466 -467 -468 -469 -470 0
16 -216 -471 0
216 -16 -471 0
471 -16 -216 0
16 216 471 0
-212 12 -472 0
-12 212 -472 0
472 -12 -212 0
12 212 472 0
13 -213 -473 0
213 -13 -473 0
473 -13 -213 0
13 213 473 0
14 -214 -474 0
214 -14 -474 0
474 -14 -214 0
14 214 474 0
15 -215 -475 0
215 -15 -475 0
475 -15 -215 0
15 215 475 0
-471 -472 -473 -474 -475 0
16 -226 -476 0
226 -16 -476 0
476 -16 -226 0
16 226 476 0
-222 12 -477 0
-12 222 -477 0
477 -12 -222 0
12 222 477 0
13 -223 -478 0
223 -13 -478 0
478 -13 -223 0
13 223 478 0
14 -224 -479 0
224 -14 -479 0
479 -14 -224 0
14 224 479 0
15 -225 -480 0
225 -15 -480 0
480 -15 -225 0
15 225 480 0
-476 -477 -478 -479 -480 0
16 -236 -481 0
236 -16 -481 0
481 -16 -236 0
16 236 481 0
-232 12 -482 0
-12 232 -482 0
482 -12 -232 0
12 232 482 0
13 -233 -483 0
233 -13 -483 0
483 -13 -233 0
13 233 483 0
14 -234 -484 0
234 -14 -484 0
484 -14 -234 0
14 234 484 0
15 -235 -485 0
235 -15 -485 0
485 -15 -235 0
15 235 485 0
-481 -482 -483 -484 -485 0
16 -246 -486 0
246 -16 -486 0
486 -16 -246 0
16 246 486 0
-242 12 -487 0
-12 242 -487 0
487 -12 -242 0
12 242 487 0
13 -243 -488 0
243 -13 -488 0
488 -13 -243 0
13 243 488 0
14 -244 -489 0
244 -14 -489 0
489 -14 -244 0
14 244 489 0
15 -245 -490 0
245 -15 -490 0
490 -15 -245 0
15 245 490 0
-486 -487 -488 -489 -490 0
26 -6 -491 0
6 -26 -491 0
-6 -26 491 0
6 26 491 0
22 -5 -492 0
-22 5 -492 0
-22 -5 492 0
5 22 492 0
23 -4 -493 0
4 -23 -493 0
-4 -23 493 0
4 23 493 0
24 -3 -494 0
3 -24 -494 0
-3 -24 494 0
3 24 494 0
25 -2 -495 0
2 -25 -495 0
-2 -25 495 0
2 25 495 0
-491 -492 -493 -494 -495 0
26 -16 -496 0
16 -26 -496 0
-16 -26 496 0
16 26 496 0
-12 22 -497 0
-22 12 -497 0
-12 -22 497 0
12 22 497 0
23 -13 -498 0
13 -23 -498 0
-13 -23 498 0
13 23 498 0
24 -14 -499 0
14 -24 -499 0
-14 -24 499 0
14 24 499 0
25 -15 -500 0
15 -25 -500 0
-15 -25 500 0
15 25 500 0
-496 -497 -498 -499 -500 0
26 -36 -501 0
36 -26 -501 0
501 -26 -36 0
26 36 501 0
-32 22 -502 0
-22 32 -502 0
502 -22 -32 0
22 32 502 0
23 -33 -503 0
33 -23 -503 0
503 -23 -33 0
23 33 503 0
24 -34 -504 0
34 -24 -504 0
504 -24 -34 0
24 34 504 0
25 -35 -505 0
35 -25 -505 0
505 -25 -35 0
25 35 505 0
-501 -502 -503 -504 -505 0
26 -46 -506 0
46 -26 -506 0
506 -26 -46 0
26 46 506 0
-42 22 -507 0
-22 42 -507 0
507 -22 -42 0
22 42 507 0
23 -43 -508 0
43 -23 -508 0
508 -23 -43 0
23 43 508 0
24 -44 -509 0
44 -24 -509 0
509 -24 -44 0
24 44 509 0
25 -45 -510 0
45 -25 -510 0
510 -25 -45 0
25 45 510 0
-506 -507 -508 -509 -510 0
26 -56 -511 0
56 -26 -511 0
511 -26 -56 0
26 56 511 0
-52 22 -512 0
-22 52 -512 0
512 -22 -52 0
22 52 512 0
23 -53 -513 0
53 -23 -513 0
513 -23 -53 0
23 53 513 0
24 -54 -514 0
54 -24 -514 0
514 -24 -54 0
24 54 514 0
25 -55 -515 0
55 -25 -515 0
515 -25 -55 0
25 55 515 0
-511 -512 -513 -514 -515 0
26 -66 -516 0
66 -26 -516 0
516 -26 -66 0
26 66 516 0
-62 22 -517 0
-22 62 -517 0
517 -22 -62 0
22 62 517 0
23 -63 -518 0
63 -23 -518 0
518 -23 -63 0
23 63 518 0
24 -64 -519 0
64 -24 -519 0
519 -24 -64 0
24 64 519 0
25 -65 -520 0
65 -25 -520 0
520 -25 -65 0
25 65 520 0
-516 -517 -518 -519 -520 0
26 -76 -521 0
76 -26 -521 0
521 -26 -76 0
26 76 521 0
-72 22 -522 0
-22 72 -522 0
522 -22 -72 0
22 72 522 0
23 -73 -523 0
73 -23 -523 0
523 -23 -73 0
23 73 523 0
24 -74 -524 0
74 -24 -524 0
524 -24 -74 0
24 74 524 0
25 -75 -525 0
75 -25 -525 0
525 -25 -75 0
25 75 525 0
-521 -522 -523 -524 -525 0
26 -86 -526 0
86 -26 -526 0
526 -26 -86 0
26 86 526 0
-82 22 -527 0
-22 82 -527 0
527 -22 -82 0
22 82 527 0
23 -83 -528 0
83 -23 -528 0
528 -23 -83 0
23 83 528 0
24 -84 -529 0
84 -24 -529 0
529 -24 -84 0
24 84 529 0
25 -85 -530 0
85 -25 -530 0
530 -25 -85 0
25 85 530 0
-526 -527 -528 -529 -530 0
26 -96 -531 0
96 -26 -531 0
531 -26 -96 0
26 96 531 0
-92 22 -532 0
-22 92 -532 0
532 -22 -92 0
22 92 532 0
23 -93 -533 0
93 -23 -533 0
533 -23 -93 0
23 93 533 0
24 -94 -534 0
94 -24 -534 0
534 -24 -94 0
24 94 534 0
25 -95 -535 0
95 -25 -535 0
535 -25 -95 0
25 95 535 0
-531 -532 -533 -534 -535 0
26 -106 -536 0
106 -26 -536 0
536 -26 -106 0
26 106 536 0
-102 22 -537 0
-22 102 -537 0
537 -22 -102 0
22 102 537 0
23 -103 -538 0
103 -23 -538 0
538 -23 -103 0
23 103 538 0
24 -104 -539 0
104 -24 -539 0
539 -24 -104 0
24 104 539 0
25 -105 -540 0
105 -25 -540 0
540 -25 -105 0
25 105 540 0
-536 -537 -538 -539 -540 0
26 -116 -541 0
116 -26 -541 0
541 -26 -116 0
26 116 541 0
-112 22 -542 0
-22 112 -542 0
542 -22 -112 0
22 112 542 0
23 -113 -543 0
113 -23 -543 0
543 -23 -113 0
23 113 543 0
24 -114 -544 0
114 -24 -544 0
544 -24 -114 0
24 114 544 0
25 -115 -545 0
115 -25 -545 0
545 -25 -115 0
25 115 545 0
-541 -542 -543 -544 -545 0
26 -126 -546 0
126 -26 -546 0
546 -26 -126 0
26 126 546 0
-122 22 -547 0
-22 122 -547 0
547 -22 -122 0
22 122 547 0
23 -123 -548 0
123 -23 -548 0
548 -23 -123 0
23 123 548 0
24 -124 -549 0
124 -24 -549 0
549 -24 -124 0
24 124 549 0
25 -125 -550 0
125 -25 -550 0
550 -25 -125 0
25 125 550 0
-546 -547 -548 -549 -550 0
26 -136 -551 0
136 -26 -551 0
551 -26 -136 0
26 136 551 0
-132 22 -552 0
-22 132 -552 0
552 -22 -132 0
22 132 552 0
23 -133 -553 0
133 -23 -553 0
553 -23 -133 0
23 133 553 0
24 -134 -554 0
134 -24 -554 0
554 -24 -134 0
24 134 554 0
25 -135 -555 0
135 -25 -555 0
555 -25 -135 0
25 135 555 0
-551 -552 -553 -554 -555 0
26 -146 -556 0
146 -26 -556 0
556 -26 -146 0
26 146 556 0
-142 22 -557 0
-22 142 -557 0
557 -22 -142 0
22 142 557 0
23 -143 -558 0
143 -23 -558 0
558 -23 -143 0
23 143 558 0
24 -144 -559 0
144 -24 -559 0
559 -24 -144 0
24 144 559 0
25 -145 -560 0
145 -25 -560 0
560 -25 -145 0
25 145 560 0
-556 -557 -558 -559 -560 0
26 -156 -561 0
156 -26 -561 0
561 -26 -156 0
26 156 561 0
-152 22 -562 0
-22 152 -562 0
562 -22 -152 0
22 152 562 0
23 -153 -563 0
153 -23 -563 0
563 -23 -153 0
23 153 563 0
24 -154 -564 0
154 -24 -564 0
564 -24 -154 0
24 154 564 0
25 -155 -565 0
155 -25 -565 0
565 -25 -155 0
25 155 565 0
-561 -562 -563 -564 -565 0
26 -166 -566 0
166 -26 -566 0
566 -26 -166 0
26 166 566 0
-162 22 -567 0
-22 162 -567 0
567 -22 -162 0
22 162 567 0
23 -163 -568 0
163 -23 -568 0
568 -23 -163 0
23 163 568 0
24 -164 -569 0
164 -24 -569 0
569 -24 -164 0
24 164 569 0
25 -165 -570 0
165 -25 -570 0
570 -25 -165 0
25 165 570 0
-566 -567 -568 -569 -570 0
26 -176 -571 0
176 -26 -571 0
571 -26 -176 0
26 176 571 0
-172 22 -572 0
-22 172 -572 0
572 -22 -172 0
22 172 572 0
23 -173 -573 0
173 -23 -573 0
573 -23 -173 0
23 173 573 0
24 -174 -574 0
174 -24 -574 0
574 -24 -174 0
24 174 574 0
25 -175 -575 0
175 -25 -575 0
575 -25 -175 0
25 175 575 0
-571 -572 -573 -574 -575 0
26 -186 -576 0
186 -26 -576 0
576 -26 -186 0
26 186 576 0
-182 22 -577 0
-22 182 -577 0
577 -22 -182 0
22 182 577 0
23 -183 -578 0
183 -23 -578 0
578 -23 -183 0
23 183 578 0
24 -184 -579 0
184 -24 -579 0
579 -24 -184 0
24 184 579 0
25 -185 -580 0
185 -25 -580 0
580 -25 -185 0
25 185 580 0
-576 -577 -578 -579 -580 0
26 -196 -581 0
196 -26 -581 0
581 -26 -196 0
26 196 581 0
-192 22 -582 0
-22 192 -582 0
582 -22 -192 0
22 192 582 0
23 -193 -583 0
193 -23 -583 0
583 -23 -193 0
23 193 583 0
24 -194 -584 0
194 -24 -584 0
584 -24 -194 0
24 194 584 0
25 -195 -585 0
195 -25 -585 0
585 -25 -195 0
25 195 585 0
-581 -582 -583 -584 -585 0
26 -206 -586 0
206 -26 -586 0
586 -26 -206 0
26 206 586 0
-202 22 -587 0
-22 202 -587 0
587 -22 -202 0
22 202 587 0
23 -203 -588 0
203 -23 -588 0
588 -23 -203 0
23 203 588 0
24 -204 -589 0
204 -24 -589 0
589 -24 -204 0
24 204 589 0
25 -205 -590 0
205 -25 -590 0
590 -25 -205 0
25 205 590 0
-586 -587 -588 -589 -590 0
26 -216 -591 0
216 -26 -591 0
591 -26 -216 0
26 216 591 0
-212 22 -592 0
-22 212 -592 0
592 -22 -212 0
22 212 592 0
23 -213 -593 0
213 -23 -593 0
593 -23 -213 0
23 213 593 0
24 -214 -594 0
214 -24 -594 0
594 -24 -214 0
24 214 594 0
25 -215 -595 0
215 -25 -595 0
595 -25 -215 0
25 215 595 0
-591 -592 -593 -594 -595 0
26 -226 -596 0
226 -26 -596 0
596 -26 -226 0
26 226 596 0
-222 22 -597 0
-22 222 -597 0
597 -22 -222 0
22 222 597 0
23 -223 -598 0
223 -23 -598 0
598 -23 -223 0
23 223 598 0
24 -224 -599 0
224 -24 -599 0
599 -24 -224 0
24 224 599 0
25 -225 -600 0
225 -25 -600 0
600 -25 -225 0
25 225 600 0
-596 -597 -598 -599 -600 0
26 -236 -601 0
236 -26 -601 0
601 -26 -236 0
26 236 601 0
-232 22 -602 0
-22 232 -602 0
602 -22 -232 0
22 232 602 0
23 -233 -603 0
233 -23 -603 0
603 -23 -233 0
23 233 603 0
24 -234 -604 0
234 -24 -604 0
604 -24 -234 0
24 234 604 0
25 -235 -605 0
235 -25 -605 0
605 -25 -235 0
25 235 605 0
-601 -602 -603 -604 -605 0
26 -246 -606 0
246 -26 -606 0
606 -26 -246 0
26 246 606 0
-242 22 -607 0
-22 242 -607 0
607 -22 -242 0
22 242 607 0
23 -243 -608 0
243 -23 -608 0
608 -23 -243 0
23 243 608 0
24 -244 -609 0
244 -24 -609 0
609 -24 -244 0
24 244 609 0
25 -245 -610 0
245 -25 -610 0
610 -25 -245 0
25 245 610 0
-606 -607 -608 -609 -610 0
36 -6 -611 0
6 -36 -611 0
-6 -36 611 0
6 36 611 0
32 -5 -612 0
-32 5 -612 0
-32 -5 612 0
5 32 612 0
33 -4 -613 0
4 -33 -613 0
-4 -33 613 0
4 33 613 0
34 -3 -614 0
3 -34 -614 0
-3 -34 614 0
3 34 614 0
35 -2 -615 0
2 -35 -615 0
-2 -35 615 0
2 35 615 0
-611 -612 -613 -614 -615 0
36 -16 -616 0
16 -36 -616 0
-16 -36 616 0
16 36 616 0
-12 32 -617 0
-32 12 -617 0
-12 -32 617 0
12 32 617 0
33 -13 -618 0
13 -33 -618 0
-13 -33 618 0
13 33 618 0
34 -14 -619 0
14 -34 -619 0
-14 -34 619 0
14 34 619 0
35 -15 -620 0
15 -35 -620 0
-15 -35 620 0
15 35 620 0
-616 -617 -618 -619 -620 0
36 -26 -621 0
26 -36 -621 0
-26 -36 621 0
26 36 621 0
-22 32 -622 0
-32 22 -622 0
-22 -32 622 0
22 32 622 0
33 -23 -623 0
23 -33 -623 0
-23 -33 623 0
23 33 623 0
34 -24 -624 0
24 -34 -624 0
-24 -34 624 0
24 34 624 0
35 -25 -625 0
25 -35 -625 0
-25 -35 625 0
25 35 625 0
-621 -622 -623 -624 -625 0
36 -46 -626 0
46 -36 -626 0
626 -36 -46 0
36 46 626 0
-42 32 -627 0
-32 42 -627 0
627 -32 -42 0
32 42 627 0
33 -43 -628 0
43 -33 -628 0
628 -33 -43 0
33 43 628 0
34 -44 -629 0
44 -34 -629 0
629 -34 -44 0
34 44 629 0
35 -45 -630 0
45 -35 -630 0
630 -35 -45 0
35 45 630 0
-626 -627 -628 -629 -630 0
36 -56 -631 0
56 -36 -631 0
631 -36 -56 0
36 56 631 0
-52 32 -632 0
-32 52 -632 0
632 -32 -52 0
32 52 632 0
33 -53 -633 0
53 -33 -633 0
633 -33 -53 0
33 53 633 0
34 -54 -634 0
54 -34 -634 0
634 -34 -54 0
34 54 634 0
35 -55 -635 0
55 -35 -635 0
635 -35 -55 0
35 55 635 0
-631 -632 -633 -634 -635 0
36 -66 -636 0
66 -36 -636 0
636 -36 -66 0
36 66 636 0
-62 32 -637 0
-32 62 -637 0
637 -32 -62 0
32 62 637 0
33 -63 -638 0
63 -33 -638 0
638 -33 -63 0
33 63 638 0
34 -64 -639 0
64 -34 -639 0
639 -34 -64 0
34 64 639 0
35 -65 -640 0
65 -35 -640 0
640 -35 -65 0
35 65 640 0
-636 -637 -638 -639 -640 0
36 -76 -641 0
76 -36 -641 0
641 -36 -76 0
36 76 641 0
-72 32 -642 0
-32 72 -642 0
642 -32 -72 0
32 72 642 0
33 -73 -643 0
73 -33 -643 0
643 -33 -73 0
33 73 643 0
34 -74 -644 0
74 -34 -644 0
644 -34 -74 0
34 74 644 0
35 -75 -645 0
75 -35 -645 0
645 -35 -75 0
35 75 645 0
-641 -642 -643 -644 -645 0
36 -86 -646 0
86 -36 -646 0
646 -36 -86 0
36 86 646 0
-82 32 -647 0
-32 82 -647 0
647 -32 -82 0
32 82 647 0
33 -83 -648 0
83 -33 -648 0
648 -33 -83 0
33 83 648 0
34 -84 -649 0
84 -34 -649 0
649 -34 -84 0
34 84 649 0
35 -85 -650 0
85 -35 -650 0
650 -35 -85 0
35 85 650 0
-646 -647 -648 -649 -650 0
36 -96 -651 0
96 -36 -651 0
651 -36 -96 0
36 96 651 0
-92 32 -652 0
-32 92 -652 0
652 -32 -92 0
32 92 652 0
33 -93 -653 0
93 -33 -653 0
653 -33 -93 0
33 93 653 0
34 -94 -654 0
94 -34 -654 0
654 -34 -94 0
34 94 654 0
35 -95 -655 0
95 -35 -655 0
655 -35 -95 0
35 95 655 0
-651 -652 -653 -654 -655 0
36 -106 -656 0
106 -36 -656 0
656 -36 -106 0
36 106 656 0
-102 32 -657 0
-32 102 -657 0
657 -32 -102 0
32 102 657 0
33 -103 -658 0
103 -33 -658 0
658 -33 -103 0
33 103 658 0
34 -104 -659 0
104 -34 -659 0
659 -34 -104 0
34 104 659 0
35 -105 -660 0
105 -35 -660 0
660 -35 -105 0
35 105 660 0
-656 -657 -658 -659 -660 0
36 -116 -661 0
116 -36 -661 0
661 -36 -116 0
36 116 661 0
-112 32 -662 0
-32 112 -662 0
662 -32 -112 0
32 112 662 0
33 -113 -663 0
113 -33 -663 0
663 -33 -113 0
33 113 663 0
34 -114 -664 0
114 -34 -664 0
664 -34 -114 0
34 114 664 0
35 -115 -665 0
115 -35 -665 0
665 -35 -115 0
35 115 665 0
-661 -662 -663 -664 -665 0
36 -126 -666 0
126 -36 -666 0
666 -36 -126 0
36 126 666 0
-122 32 -667 0
-32 122 -667 0
667 -32 -122 0
32 122 667 0
33 -123 -668 0
123 -33 -668 0
668 -33 -123 0
33 123 668 0
34 -124 -669 0
124 -34 -669 0
669 -34 -124 0
34 124 669 0
35 -125 -670 0
125 -35 -670 0
670 -35 -125 0
35 125 670 0
-666 -667 -668 -669 -670 0
36 -136 -671 0
136 -36 -671 0
671 -36 -136 0
36 136 671 0
-132 32 -672 0
-32 132 -672 0
672 -32 -132 0
32 132 672 0
33 -133 -673 0
133 -33 -673 0
673 -33 -133 0
33 133 673 0
34 -134 -674 0
134 -34 -674 0
674 -34 -134 0
34 134 674 0
35 -135 -675 0
135 -35 -675 0
675 -35 -135 0
35 135 675 0
-671 -672 -673 -674 -675 0
36 -146 -676 0
146 -36 -676 0
676 -36 -146 0
36 146 676 0
-142 32 -677 0
-32 142 -677 0
677 -32 -142 0
32 142 677 0
33 -143 -678 0
143 -33 -678 0
678 -33 -143 0
33 143 678 0
34 -144 -679 0
144 -34 -679 0
679 -34 -144 0
34 144 679 0
35 -145 -680 0
145 -35 -680 0
680 -35 -145 0
35 145 680 0
-676 -677 -678 -679 -680 0
36 -156 -681 0
156 -36 -681 0
681 -36 -156 0
36 156 681 0
-152 32 -682 0
-32 152 -682 0
682 -32 -152 0
32 152 682 0
33 -153 -683 0
153 -33 -683 0
683 -33 -153 0
33 153 683 0
34 -154 -684 0
154 -34 -684 0
684 -34 -154 0
34 154 684 0
35 -155 -685 0
155 -35 -685 0
685 -35 -155 0
35 155 685 0
-681 -682 -683 -684 -685 0
36 -166 -686 0
166 -36 -686 0
686 -36 -166 0
36 166 686 0
-162 32 -687 0
-32 162 -687 0
687 -32 -162 0
32 162 687 0
33 -163 -688 0
163 -33 -688 0
688 -33 -163 0
33 163 688 0
34 -164 -689 0
164 -34 -689 0
689 -34 -164 0
34 164 689 0
35 -165 -690 0
165 -35 -690 0
690 -35 -165 0
35 165 690 0
-686 -687 -688 -689 -690 0
36 -176 -691 0
176 -36 -691 0
691 -36 -176 0
36 176 691 0
-172 32 -692 0
-32 172 -692 0
692 -32 -172 0
32 172 692 0
33 -173 -693 0
173 -33 -693 0
693 -33 -173 0
33 173 693 0
34 -174 -694 0
174 -34 -694 0
694 -34 -174 0
34 174 694 0
35 -175 -695 0
175 -35 -695 0
695 -35 -175 0
35 175 695 0
-691 -692 -693 -694 -695 0
36 -186 -696 0
186 -36 -696 0
696 -36 -186 0
36 186 696 0
-182 32 -697 0
-32 182 -697 0
697 -32 -182 0
32 182 697 0
33 -183 -698 0
183 -33 -698 0
698 -33 -183 0
33 183 698 0
34 -184 -699 0
184 -34 -699 0
699 -34 -184 0
34 184 699 0
35 -185 -700 0
185 -35 -700 0
700 -35 -185 0
35 185 700 0
-696 -697 -698 -699 -700 0
36 -196 -701 0
196 -36 -701 0
701 -36 -196 0
36 196 701 0
-192 32 -702 0
-32 192 -702 0
702 -32 -192 0
32 192 702 0
33 -193 -703 0
193 -33 -703 0
703 -33 -193 0
33 193 703 0
34 -194 -704 0
194 -34 -704 0
704 -34 -194 0
34 194 704 0
35 -195 -705 0
195 -35 -705 0
705 -35 -195 0
35 195 705 0
-701 -702 -703 -704 -705 0
36 -206 -706 0
206 -36 -706 0
706 -36 -206 0
36 206 706 0
-202 32 -707 0
-32 202 -707 0
707 -32 -202 0
32 202 707 0
33 -203 -708 0
203 -33 -708 0
708 -33 -203 0
33 203 708 0
34 -204 -709 0
204 -34 -709 0
709 -34 -204 0
34 204 709 0
35 -205 -710 0
205 -35 -710 0
710 -35 -205 0
35 205 710 0
-706 -707 -708 -709 -710 0
36 -216 -711 0
216 -36 -711 0
711 -36 -216 0
36 216 711 0
-212 32 -712 0
-32 212 -712 0
712 -32 -212 0
32 212 712 0
33 -213 -713 0
213 -33 -713 0
713 -33 -213 0
33 213 713 0
34 -214 -714 0
214 -34 -714 0
714 -34 -214 0
34 214 714 0
35 -215 -715 0
215 -35 -715 0
715 -35 -215 0
35 215 715 0
-711 -712 -713 -714 -715 0
36 -226 -716 0
226 -36 -716 0
716 -36 -226 0
36 226 716 0
-222 32 -717 0
-32 222 -717 0
717 -32 -222 0
32 222 717 0
33 -223 -718 0
223 -33 -718 0
718 -33 -223 0
33 223 718 0
34 -224 -719 0
224 -34 -719 0
719 -34 -224 0
34 224 719 0
35 -225 -720 0
225 -35 -720 0
720 -35 -225 0
35 225 720 0
-716 -717 -718 -719 -720 0
36 -236 -721 0
236 -36 -721 0
721 -36 -236 0
36 236 721 0
-232 32 -722 0
-32 232 -722 0
722 -32 -232 0
32 232 722 0
33 -233 -723 0
233 -33 -723 0
723 -33 -233 0
33 233 723 0
34 -234 -724 0
234 -34 -724 0
724 -34 -234 0
34 234 724 0
35 -235 -725 0
235 -35 -725 0
725 -35 -235 0
35 235 725 0
-721 -722 -723 -724 -725 0
36 -246 -726 0
246 -36 -726 0
726 -36 -246 0
36 246 726 0
-242 32 -727 0
-32 242 -727 0
727 -32 -242 0
32 242 727 0
33 -243 -728 0
243 -33 -728 0
728 -33 -243 0
33 243 728 0
34 -244 -729 0
244 -34 -729 0
729 -34 -244 0
34 244 729 0
35 -245 -730 0
245 -35 -730 0
730 -35 -245 0
35 245 730 0
-726 -727 -728 -729 -730 0
46 -6 -731 0
6 -46 -731 0
-6 -46 731 0
6 46 731 0
42 -5 -732 0
-42 5 -732 0
-42 -5 732 0
5 42 732 0
43 -4 -733 0
4 -43 -733 0
-4 -43 733 0
4 43 733 0
44 -3 -734 0
3 -44 -734 0
-3 -44 734 0
3 44 734 0
45 -2 -735 0
2 -45 -735 0
-2 -45 735 0
2 45 735 0
-731 -732 -733 -734 -735 0
46 -16 -736 0
16 -46 -736 0
-16 -46 736 0
16 46 736 0
-12 42 -737 0
-42 12 -737 0
-12 -42 737 0
12 42 737 0
43 -13 -738 0
13 -43 -738 0
-13 -43 738 0
13 43 738 0
44 -14 -739 0
14 -44 -739 0
-14 -44 739 0
14 44 739 0
45 -15 -740 0
15 -45 -740 0
-15 -45 740 0
15 45 740 0
-736 -737 -738 -739 -740 0
46 -26 -741 0
26 -46 -741 0
-26 -46 741 0
26 46 741 0
-22 42 -742 0
-42 22 -742 0
-22 -42 742 0
22 42 742 0
43 -23 -743 0
23 -43 -743 0
-23 -43 743 0
23 43 743 0
44 -24 -744 0
24 -44 -744 0
-24 -44 744 0
24 44 744 0
45 -25 -745 0
25 -45 -745 0
-25 -45 745 0
25 45 745 0
-741 -742 -743 -744 -745 0
46 -36 -746 0
36 -46 -746 0
-36 -46 746 0
36 46 746 0
-32 42 -747 0
-42 32 -747 0
-32 -42 747 0
32 42 747 0
43 -33 -748 0
33 -43 -748 0
-33 -43 748 0
33 43 748 0
44 -34 -749 0
34 -44 -749 0
-34 -44 749 0
34 44 749 0
45 -35 -750 0
35 -45 -750 0
-35 -45 750 0
35 45 750 0
-746 -747 -748 -749 -750 0
46 -56 -751 0
56 -46 -751 0
751 -46 -56 0
46 56 751 0
-52 42 -752 0
-42 52 -752 0
752 -42 -52 0
42 52 752 0
43 -53 -753 0
53 -43 -753 0
753 -43 -53 0
43 53 753 0
44 -54 -754 0
54 -44 -754 0
754 -44 -54 0
44 54 754 0
45 -55 -755 0
55 -45 -755 0
755 -45 -55 0
45 55 755 0
-751 -752 -753 -754 -755 0
46 -66 -756 0
66 -46 -756 0
756 -46 -66 0
46 66 756 0
-62 42 -757 0
-42 62 -757 0
757 -42 -62 0
42 62 757 0
43 -63 -758 0
63 -43 -758 0
758 -43 -63 0
43 63 758 0
44 -64 -759 0
64 -44 -759 0
759 -44 -64 0
44 64 759 0
45 -65 -760 0
65 -45 -760 0
760 -45 -65 0
45 65 760 0
-756 -757 -758 -759 -760 0
46 -76 -761 0
76 -46 -761 0
761 -46 -76 0
46 76 761 0
-72 42 -762 0
-42 72 -762 0
762 -42 -72 0
42 72 762 0
43 -73 -763 0
73 -43 -763 0
763 -43 -73 0
43 73 763 0
44 -74 -764 0
74 -44 -764 0
764 -44 -74 0
44 74 764 0
45 -75 -765 0
75 -45 -765 0
765 -45 -75 0
45 75 765 0
-761 -762 -763 -764 -765 0
46 -86 -766 0
86 -46 -766 0
766 -46 -86 0
46 86 766 0
-82 42 -767 0
-42 82 -767 0
767 -42 -82 0
42 82 767 0
43 -83 -768 0
83 -43 -768 0
768 -43 -83 0
43 83 768 0
44 -84 -769 0
84 -44 -769 0
769 -44 -84 0
44 84 769 0
45 -85 -770 0
85 -45 -770 0
770 -45 -85 0
45 85 770 0
-766 -767 -768 -769 -770 0
46 -96 -771 0
96 -46 -771 0
771 -46 -96 0
46 96 771 0
-92 42 -772 0
-42 92 -772 0
772 -42 -92 0
42 92 772 0
43 -93 -773 0
93 -43 -773 0
773 -43 -93 0
43 93 773 0
44 -94 -774 0
94 -44 -774 0
774 -44 -94 0
44 94 774 0
45 -95 -775 0
95 -45 -775 0
775 -45 -95 0
45 95 775 0
-771 -772 -773 -774 -775 0
46 -106 -776 0
106 -46 -776 0
776 -46 -106 0
46 106 776 0
-102 42 -777 0
-42 102 -777 0
777 -42 -102 0
42 102 777 0
43 -103 -778 0
103 -43 -778 0
778 -43 -103 0
43 103 778 0
44 -104 -779 0
104 -44 -779 0
779 -44 -104 0
44 104 779 0
45 -105 -780 0
105 -45 -780 0
780 -45 -105 0
45 105 780 0
-776 -777 -778 -779 -780 0
46 -116 -781 0
116 -46 -781 0
781 -46 -116 0
46 116 781 0
-112 42 -782 0
-42 112 -782 0
782 -42 -112 0
42 112 782 0
43 -113 -783 0
113 -43 -783 0
783 -43 -113 0
43 113 783 0
44 -114 -784 0
114 -44 -784 0
784 -44 -114 0
44 114 784 0
45 -115 -785 0
115 -45 -785 0
785 -45 -115 0
45 115 785 0
-781 -782 -783 -784 -785 0
46 -126 -786 0
126 -46 -786 0
786 -46 -126 0
46 126 786 0
-122 42 -787 0
-42 122 -787 0
787 -42 -122 0
42 122 787 0
43 -123 -788 0
123 -43 -788 0
788 -43 -123 0
43 123 788 0
44 -124 -789 0
124 -44 -789 0
789 -44 -124 0
44 124 789 0
45 -125 -790 0
125 -45 -790 0
790 -45 -125 0
45 125 790 0
-786 -787 -788 -789 -790 0
46 -136 -791 0
136 -46 -791 0
791 -46 -136 0
46 136 791 0
-132 42 -792 0
-42 132 -792 0
792 -42 -132 0
42 132 792 0
43 -133 -793 0
133 -43 -793 0
793 -43 -133 0
43 133 793 0
44 -134 -794 0
134 -44 -794 0
794 -44 -134 0
44 134 794 0
45 -135 -795 0
135 -45 -795 0
795 -45 -135 0
45 135 795 0
-791 -792 -793 -794 -795 0
46 -146 -796 0
146 -46 -796 0
796 -46 -146 0
46 146 796 0
-142 42 -797 0
-42 142 -797 0
797 -42 -142 0
42 142 797 0
43 -143 -798 0
143 -43 -798 0
798 -43 -143 0
43 143 798 0
44 -144 -799 0
144 -44 -799 0
799 -44 -144 0
44 144 799 0
45 -145 -800 0
145 -45 -800 0
800 -45 -145 0
45 145 800 0
-796 -797 -798 -799 -800 0
46 -156 -801 0
156 -46 -801 0
801 -46 -156 0
46 156 801 0
-152 42 -802 0
-42 152 -802 0
802 -42 -152 0
42 152 802 0
43 -153 -803 0
153 -43 -803 0
803 -43 -153 0
43 153 803 0
44 -154 -804 0
154 -44 -804 0
804 -44 -154 0
44 154 804 0
45 -155 -805 0
155 -45 -805 0
805 -45 -155 0
45 155 805 0
-801 -802 -803 -804 -805 0
46 -166 -806 0
166 -46 -806 0
806 -46 -166 0
46 166 806 0
-162 42 -807 0
-42 162 -807 0
807 -42 -162 0
42 162 807 0
43 -163 -808 0
163 -43 -808 0
808 -43 -163 0
43 163 808 0
44 -164 -809 0
164 -44 -809 0
809 -44 -164 0
44 164 809 0
45 -165 -810 0
165 -45 -810 0
810 -45 -165 0
45 165 810 0
-806 -807 -808 -809 -810 0
46 -176 -811 0
176 -46 -811 0
811 -46 -176 0
46 176 811 0
-172 42 -812 0
-42 172 -812 0
812 -42 -172 0
42 172 812 0
43 -173 -813 0
173 -43 -813 0
813 -43 -173 0
43 173 813 0
44 -174 -814 0
174 -44 -814 0
814 -44 -174 0
44 174 814 0
45 -175 -815 0
175 -45 -815 0
815 -45 -175 0
45 175 815 0
-811 -812 -813 -814 -815 0
46 -186 -816 0
186 -46 -816 0
816 -46 -186 0
46 186 816 0
-182 42 -817 0
-42 182 -817 0
817 -42 -182 0
42 182 817 0
43 -183 -818 0
183 -43 -818 0
818 -43 -183 0
43 183 818 0
44 -184 -819 0
184 -44 -819 0
819 -44 -184 0
44 184 819 0
45 -185 -820 0
185 -45 -820 0
820 -45 -185 0
45 185 820 0
-816 -817 -818 -819 -820 0
46 -196 -821 0
196 -46 -821 0
821 -46 -196 0
46 196 821 0
-192 42 -822 0
-42 192 -822 0
822 -42 -192 0
42 192 822 0
43 -193 -823 0
193 -43 -823 0
823 -43 -193 0
43 193 823 0
44 -194 -824 0
194 -44 -824 0
824 -44 -194 0
44 194 824 0
45 -195 -825 0
195 -45 -825 0
825 -45 -195 0
45 195 825 0
-821 -822 -823 -824 -825 0
46 -206 -826 0
206 -46 -826 0
826 -46 -206 0
46 206 826 0
-202 42 -827 0
-42 202 -827 0
827 -42 -202 0
42 202 827 0
43 -203 -828 0
203 -43 -828 0
828 -43 -203 0
43 203 828 0
44 -204 -829 0
204 -44 -829 0
829 -44 -204 0
44 204 829 0
45 -205 -830 0
205 -45 -830 0
830 -45 -205 0
45 205 830 0
-826 -827 -828 -829 -830 0
46 -216 -831 0
216 -46 -831 0
831 -46 -216 0
46 216 831 0
-212 42 -832 0
-42 212 -832 0
832 -42 -212 0
42 212 832 0
43 -213 -833 0
213 -43 -833 0
833 -43 -213 0
43 213 833 0
44 -214 -834 0
214 -44 -834 0
834 -44 -214 0
44 214 834 0
45 -215 -835 0
215 -45 -835 0
835 -45 -215 0
45 215 835 0
-831 -832 -833 -834 -835 0
46 -226 -836 0
226 -46 -836 0
836 -46 -226 0
46 226 836 0
-222 42 -837 0
-42 222 -837 0
837 -42 -222 0
42 222 837 0
43 -223 -838 0
223 -43 -838 0
838 -43 -223 0
43 223 838 0
44 -224 -839 0
224 -44 -839 0
839 -44 -224 0
44 224 839 0
45 -225 -840 0
225 -45 -840 0
840 -45 -225 0
45 225 840 0
-836 -837 -838 -839 -840 0
46 -236 -841 0
236 -46 -841 0
841 -46 -236 0
46 236 841 0
-232 42 -842 0
-42 232 -842 0
842 -42 -232 0
42 232 842 0
43 -233 -843 0
233 -43 -843 0
843 -43 -233 0
43 233 843 0
44 -234 -844 0
234 -44 -844 0
844 -44 -234 0
44 234 844 0
45 -235 -845 0
235 -45 -845 0
845 -45 -235 0
45 235 845 0
-841 -842 -843 -844 -845 0
46 -246 -846 0
246 -46 -846 0
846 -46 -246 0
46 246 846 0
-242 42 -847 0
-42 242 -847 0
847 -42 -242 0
42 242 847 0
43 -243 -848 0
243 -43 -848 0
848 -43 -243 0
43 243 848 0
44 -244 -849 0
244 -44 -849 0
849 -44 -244 0
44 244 849 0
45 -245 -850 0
245 -45 -850 0
850 -45 -245 0
45 245 850 0
-846 -847 -848 -849 -850 0
56 -6 -851 0
6 -56 -851 0
-6 -56 851 0
6 56 851 0
52 -5 -852 0
-52 5 -852 0
-52 -5 852 0
5 52 852 0
53 -4 -853 0
4 -53 -853 0
-4 -53 853 0
4 53 853 0
54 -3 -854 0
3 -54 -854 0
-3 -54 854 0
3 54 854 0
55 -2 -855 0
2 -55 -855 0
-2 -55 855 0
2 55 855 0
-851 -852 -853 -854 -855 0
56 -16 -856 0
16 -56 -856 0
-16 -56 856 0
16 56 856 0
-12 52 -857 0
-52 12 -857 0
-12 -52 857 0
12 52 857 0
53 -13 -858 0
13 -53 -858 0
-13 -53 858 0
13 53 858 0
54 -14 -859 0
14 -54 -859 0
-14 -54 859 0
14 54 859 0
55 -15 -860 0
15 -55 -860 0
-15 -55 860 0
15 55 860 0
-856 -857 -858 -859 -860 0
56 -26 -861 0
26 -56 -861 0
-26 -56 861 0
26 56 861 0
-22 52 -862 0
-52 22 -862 0
-22 -52 862 0
22 52 862 0
53 -23 -863 0
23 -53 -863 0
-23 -53 863 0
23 53 863 0
54 -24 -864 0
24 -54 -864 0
-24 -54 864 0
24 54 864 0
55 -25 -865 0
25 -55 -865 0
-25 -55 865 0
25 55 865 0
-861 -862 -863 -864 -865 0
56 -36 -866 0
36 -56 -866 0
-36 -56 866 0
36 56 866 0
-32 52 -867 0
-52 32 -867 0
-32 -52 867 0
32 52 867 0
53 -33 -868 0
33 -53 -868 0
-33 -53 868 0
33 53 868 0
54 -34 -869 0
34 -54 -869 0
-34 -54 869 0
34 54 869 0
55 -35 -870 0
35 -55 -870 0
-35 -55 870 0
35 55 870 0
-866 -867 -868 -869 -870 0
56 -46 -871 0
46 -56 -871 0
-46 -56 871 0
46 56 871 0
-42 52 -872 0
-52 42 -872 0
-42 -52 872 0
42 52 872 0
53 -43 -873 0
43 -53 -873 0
-43 -53 873 0
43 53 873 0
54 -44 -874 0
44 -54 -874 0
-44 -54 874 0
44 54 874 0
55 -45 -875 0
45 -55 -875 0
-45 -55 875 0
45 55 875 0
-871 -872 -873 -874 -875 0
56 -66 -876 0
66 -56 -876 0
876 -56 -66 0
56 66 876 0
-62 52 -877 0
-52 62 -877 0
877 -52 -62 0
52 62 877 0
53 -63 -878 0
63 -53 -878 0
878 -53 -63 0
53 63 878 0
54 -64 -879 0
64 -54 -879 0
879 -54 -64 0
54 64 879 0
55 -65 -880 0
65 -55 -880 0
880 -55 -65 0
55 65 880 0
-876 -877 -878 -879 -880 0
56 -76 -881 0
76 -56 -881 0
881 -56 -76 0
56 76 881 0
-72 52 -882 0
-52 72 -882 0
882 -52 -72 0
52 72 882 0
53 -73 -883 0
73 -53 -883 0
883 -53 -73 0
53 73 883 0
54 -74 -884 0
74 -54 -884 0
884 -54 -74 0
54 74 884 0
55 -75 -885 0
75 -55 -885 0
885 -55 -75 0
55 75 885 0
-881 -882 -883 -884 -885 0
56 -86 -886 0
86 -56 -886 0
886 -56 -86 0
56 86 886 0
-82 52 -887 0
-52 82 -887 0
887 -52 -82 0
52 82 887 0
53 -83 -888 0
83 -53 -888 0
888 -53 -83 0
53 83 888 0
54 -84 -889 0
84 -54 -889 0
889 -54 -84 0
54 84 889 0
55 -85 -890 0
85 -55 -890 0
890 -55 -85 0
55 85 890 0
-886 -887 -888 -889 -890 0
56 -96 -891 0
96 -56 -891 0
891 -56 -96 0
56 96 891 0
-92 52 -892 0
-52 92 -892 0
892 -52 -92 0
52 92 892 0
53 -93 -893 0
93 -53 -893 0
893 -53 -93 0
53 93 893 0
54 -94 -894 0
94 -54 -894 0
894 -54 -94 0
54 94 894 0
55 -95 -895 0
95 -55 -895 0
895 -55 -95 0
55 95 895 0
-891 -892 -893 -894 -895 0
56 -106 -896 0
106 -56 -896 0
896 -56 -106 0
56 106 896 0
-102 52 -897 0
-52 102 -897 0
897 -52 -102 0
52 102 897 0
53 -103 -898 0
103 -53 -898 0
898 -53 -103 0
53 103 898 0
54 -104 -899 0
104 -54 -899 0
899 -54 -104 0
54 104 899 0
55 -105 -900 0
105 -55 -900 0
900 -55 -105 0
55 105 900 0
-896 -897 -898 -899 -900 0
56 -116 -901 0
116 -56 -901 0
901 -56 -116 0
56 116 901 0
-112 52 -902 0
-52 112 -902 0
902 -52 -112 0
52 112 902 0
53 -113 -903 0
113 -53 -903 0
903 -53 -113 0
53 113 903 0
54 -114 -904 0
114 -54 -904 0
904 -54 -114 0
54 114 904 0
55 -115 -905 0
115 -55 -905 0
905 -55 -115 0
55 115 905 0
-901 -902 -903 -904 -905 0
56 -126 -906 0
126 -56 -906 0
906 -56 -126 0
56 126 906 0
-122 52 -907 0
-52 122 -907 0
907 -52 -122 0
52 122 907 0
53 -123 -908 0
123 -53 -908 0
908 -53 -123 0
53 123 908 0
54 -124 -909 0
124 -54 -909 0
909 -54 -124 0
54 124 909 0
55 -125 -910 0
125 -55 -910 0
910 -55 -125 0
55 125 910 0
-906 -907 -908 -909 -910 0
56 -136 -911 0
136 -56 -911 0
911 -56 -136 0
56 136 911 0
-132 52 -912 0
-52 132 -912 0
912 -52 -132 0
52 132 912 0
53 -133 -913 0
133 -53 -913 0
913 -53 -133 0
53 133 913 0
54 -134 -914 0
134 -54 -914 0
914 -54 -134 0
54 134 914 0
55 -135 -915 0
135 -55 -915 0
915 -55 -135 0
55 135 915 0
-911 -912 -913 -914 -915 0
56 -146 -916 0
146 -56 -916 0
916 -56 -146 0
56 146 916 0
-142 52 -917 0
-52 142 -917 0
917 -52 -142 0
52 142 917 0
53 -143 -918 0
143 -53 -918 0
918 -53 -143 0
53 143 918 0
54 -144 -919 0
144 -54 -919 0
919 -54 -144 0
54 144 919 0
55 -145 -920 0
145 -55 -920 0
920 -55 -145 0
55 145 920 0
-916 -917 -918 -919 -920 0
56 -156 -921 0
156 -56 -921 0
921 -56 -156 0
56 156 921 0
-152 52 -922 0
-52 152 -922 0
922 -52 -152 0
52 152 922 0
53 -153 -923 0
153 -53 -923 0
923 -53 -153 0
53 153 923 0
54 -154 -924 0
154 -54 -924 0
924 -54 -154 0
54 154 924 0
55 -155 -925 0
155 -55 -925 0
925 -55 -155 0
55 155 925 0
-921 -922 -923 -924 -925 0
56 -166 -926 0
166 -56 -926 0
926 -56 -166 0
56 166 926 0
-162 52 -927 0
-52 162 -927 0
927 -52 -162 0
52 162 927 0
53 -163 -928 0
163 -53 -928 0
928 -53 -163 0
53 163 928 0
54 -164 -929 0
164 -54 -929 0
929 -54 -164 0
54 164 929 0
55 -165 -930 0
165 -55 -930 0
930 -55 -165 0
55 165 930 0
-926 -927 -928 -929 -930 0
56 -176 -931 0
176 -56 -931 0
931 -56 -176 0
56 176 931 0
-172 52 -932 0
-52 172 -932 0
932 -52 -172 0
52 172 932 0
53 -173 -933 0
173 -53 -933 0
933 -53 -173 0
53 173 933 0
54 -174 -934 0
174 -54 -934 0
934 -54 -174 0
54 174 934 0
55 -175 -935 0
175 -55 -935 0
935 -55 -175 0
55 175 935 0
-931 -932 -933 -934 -935 0
56 -186 -936 0
186 -56 -936 0
936 -56 -186 0
56 186 936 0
-182 52 -937 0
-52 182 -937 0
937 -52 -182 0
52 182 937 0
53 -183 -938 0
183 -53 -938 0
938 -53 -183 0
53 183 938 0
54 -184 -939 0
184 -54 -939 0
939 -54 -184 0
54 184 939 0
55 -185 -940 0
185 -55 -940 0
940 -55 -185 0
55 185 940 0
-936 -937 -938 -939 -940 0
56 -196 -941 0
196 -56 -941 0
941 -56 -196 0
56 196 941 0
-192 52 -942 0
-52 192 -942 0
942 -52 -192 0
52 192 942 0
53 -193 -943 0
193 -53 -943 0
943 -53 -193 0
53 193 943 0
54 -194 -944 0
194 -54 -944 0
944 -54 -194 0
54 194 944 0
55 -195 -945 0
195 -55 -945 0
945 -55 -195 0
55 195 945 0
-941 -942 -943 -944 -945 0
56 -206 -946 0
206 -56 -946 0
946 -56 -206 0
56 206 946 0
-202 52 -947 0
-52 202 -947 0
947 -52 -202 0
52 202 947 0
53 -203 -948 0
203 -53 -948 0
948 -53 -203 0
53 203 948 0
54 -204 -949 0
204 -54 -949 0
949 -54 -204 0
54 204 949 0
55 -205 -950 0
205 -55 -950 0
950 -55 -205 0
55 205 950 0
-946 -947 -948 -949 -950 0
56 -216 -951 0
216 -56 -951 0
951 -56 -216 0
56 216 951 0
-212 52 -952 0
-52 212 -952 0
952 -52 -212 0
52 212 952 0
53 -213 -953 0
213 -53 -953 0
953 -53 -213 0
53 213 953 0
54 -214 -954 0
214 -54 -954 0
954 -54 -214 0
54 214 954 0
55 -215 -955 0
215 -55 -955 0
955 -55 -215 0
55 215 955 0
-951 -952 -953 -954 -955 0
56 -226 -956 0
226 -56 -956 0
956 -56 -226 0
56 226 956 0
-222 52 -957 0
-52 222 -957 0
957 -52 -222 0
52 222 957 0
53 -223 -958 0
223 -53 -958 0
958 -53 -223 0
53 223 958 0
54 -224 -959 0
224 -54 -959 0
959 -54 -224 0
54 224 959 0
55 -225 -960 0
225 -55 -960 0
960 -55 -225 0
55 225 960 0
-956 -957 -958 -959 -960 0
56 -236 -961 0
236 -56 -961 0
961 -56 -236 0
56 236 961 0
-232 52 -962 0
-52 232 -962 0
962 -52 -232 0
52 232 962 0
53 -233 -963 0
233 -53 -963 0
963 -53 -233 0
53 233 963 0
54 -234 -964 0
234 -54 -964 0
964 -54 -234 0
54 234 964 0
55 -235 -965 0
235 -55 -965 0
965 -55 -235 0
55 235 965 0
-961 -962 -963 -964 -965 0
56 -246 -966 0
246 -56 -966 0
966 -56 -246 0
56 246 966 0
-242 52 -967 0
-52 242 -967 0
967 -52 -242 0
52 242 967 0
53 -243 -968 0
243 -53 -968 0
968 -53 -243 0
53 243 968 0
54 -244 -969 0
244 -54 -969 0
969 -54 -244 0
54 244 969 0
55 -245 -970 0
245 -55 -970 0
970 -55 -245 0
55 245 970 0
-966 -967 -968 -969 -970 0
66 -6 -971 0
6 -66 -971 0
-6 -66 971 0
6 66 971 0
62 -5 -972 0
-62 5 -972 0
-62 -5 972 0
5 62 972 0
63 -4 -973 0
4 -63 -973 0
-4 -63 973 0
4 63 973 0
64 -3 -974 0
3 -64 -974 0
-3 -64 974 0
3 64 974 0
65 -2 -975 0
2 -65 -975 0
-2 -65 975 0
2 65 975 0
-971 -972 -973 -974 -975 0
66 -16 -976 0
16 -66 -976 0
-16 -66 976 0
16 66 976 0
-12 62 -977 0
-62 12 -977 0
-12 -62 977 0
12 62 977 0
63 -13 -978 0
13 -63 -978 0
-13 -63 978 0
13 63 978 0
64 -14 -979 0
14 -64 -979 0
-14 -64 979 0
14 64 979 0
65 -15 -980 0
15 -65 -980 0
-15 -65 980 0
15 65 980 0
-976 -977 -978 -979 -980 0
66 -26 -981 0
26 -66 -981 0
-26 -66 981 0
26 66 981 0
-22 62 -982 0
-62 22 -982 0
-22 -62 982 0
22 62 982 0
63 -23 -983 0
23 -63 -983 0
-23 -63 983 0
23 63 983 0
64 -24 -984 0
24 -64 -984 0
-24 -64 984 0
24 64 984 0
65 -25 -985 0
25 -65 -985 0
-25 -65 985 0
25 65 985 0
-981 -982 -983 -984 -985 0
66 -36 -986 0
36 -66 -986 0
-36 -66 986 0
36 66 986 0
-32 62 -987 0
-62 32 -987 0
-32 -62 987 0
32 62 987 0
63 -33 -988 0
33 -63 -988 0
-33 -63 988 0
33 63 988 0
64 -34 -989 0
34 -64 -989 0
-34 -64 989 0
34 64 989 0
65 -35 -990 0
35 -65 -990 0
-35 -65 990 0
35 65 990 0
-986 -987 -988 -989 -990 0
66 -46 -991 0
46 -66 -991 0
-46 -66 991 0
46 66 991 0
-42 62 -992 0
-62 42 -992 0
-42 -62 992 0
42 62 992 0
63 -43 -993 0
43 -63 -993 0
-43 -63 993 0
43 63 993 0
64 -44 -994 0
44 -64 -994 0
-44 -64 994 0
44 64 994 0
65 -45 -995 0
45 -65 -995 0
-45 -65 995 0
45 65 995 0
-991 -992 -993 -994 -995 0
66 -56 -996 0
56 -66 -996 0
-56 -66 996 0
56 66 996 0
-52 62 -997 0
-62 52 -997 0
-52 -62 997 0
52 62 997 0
63 -53 -998 0
53 -63 -998 0
-53 -63 998 0
53 63 998 0
64 -54 -999 0
54 -64 -999 0
-54 -64 999 0
54 64 999 0
65 -55 -1000 0
55 -65 -1000 0
-55 -65 1000 0
55 65 1000 0
-996 -997 -998 -999 -1000 0
66 -76 -1001 0
76 -66 -1001 0
1001 -66 -76 0
66 76 1001 0
-72 62 -1002 0
-62 72 -1002 0
1002 -62 -72 0
62 72 1002 0
63 -73 -1003 0
73 -63 -1003 0
1003 -63 -73 0
63 73 1003 0
64 -74 -1004 0
74 -64 -1004 0
1004 -64 -74 0
64 74 1004 0
65 -75 -1005 0
75 -65 -1005 0
1005 -65 -75 0
65 75 1005 0
-1001 -1002 -1003 -1004 -1005 0
66 -86 -1006 0
86 -66 -1006 0
1006 -66 -86 0
66 86 1006 0
-82 62 -1007 0
-62 82 -1007 0
1007 -62 -82 0
62 82 1007 0
63 -83 -1008 0
83 -63 -1008 0
1008 -63 -83 0
63 83 1008 0
64 -84 -1009 0
84 -64 -1009 0
1009 -64 -84 0
64 84 1009 0
65 -85 -1010 0
85 -65 -1010 0
1010 -65 -85 0
65 85 1010 0
-1006 -1007 -1008 -1009 -1010 0
66 -96 -1011 0
96 -66 -1011 0
1011 -66 -96 0
66 96 1011 0
-92 62 -1012 0
-62 92 -1012 0
1012 -62 -92 0
62 92 1012 0
63 -93 -1013 0
93 -63 -1013 0
1013 -63 -93 0
63 93 1013 0
64 -94 -1014 0
94 -64 -1014 0
1014 -64 -94 0
64 94 1014 0
65 -95 -1015 0
95 -65 -1015 0
1015 -65 -95 0
65 95 1015 0
-1011 -1012 -1013 -1014 -1015 0
66 -106 -1016 0
106 -66 -1016 0
1016 -66 -106 0
66 106 1016 0
-102 62 -1017 0
-62 102 -1017 0
1017 -62 -102 0
62 102 1017 0
63 -103 -1018 0
103 -63 -1018 0
1018 -63 -103 0
63 103 1018 0
64 -104 -1019 0
104 -64 -1019 0
1019 -64 -104 0
64 104 1019 0
65 -105 -1020 0
105 -65 -1020 0
1020 -65 -105 0
65 105 1020 0
-1016 -1017 -1018 -1019 -1020 0
66 -116 -1021 0
116 -66 -1021 0
1021 -66 -116 0
66 116 1021 0
-112 62 -1022 0
-62 112 -1022 0
1022 -62 -112 0
62 112 1022 0
63 -113 -1023 0
113 -63 -1023 0
1023 -63 -113 0
63 113 1023 0
64 -114 -1024 0
114 -64 -1024 0
1024 -64 -114 0
64 114 1024 0
65 -115 -1025 0
115 -65 -1025 0
1025 -65 -115 0
65 115 1025 0
-1021 -1022 -1023 -1024 -1025 0
66 -126 -1026 0
126 -66 -1026 0
1026 -66 -126 0
66 126 1026 0
-122 62 -1027 0
-62 122 -1027 0
1027 -62 -122 0
62 122 1027 0
63 -123 -1028 0
123 -63 -1028 0
1028 -63 -123 0
63 123 1028 0
64 -124 -1029 0
124 -64 -1029 0
1029 -64 -124 0
64 124 1029 0
65 -125 -1030 0
125 -65 -1030 0
1030 -65 -125 0
65 125 1030 0
-1026 -1027 -1028 -1029 -1030 0
66 -136 -1031 0
136 -66 -1031 0
1031 -66 -136 0
66 136 1031 0
-132 62 -1032 0
-62 132 -1032 0
1032 -62 -132 0
62 132 1032 0
63 -133 -1033 0
133 -63 -1033 0
1033 -63 -133 0
63 133 1033 0
64 -134 -1034 0
134 -64 -1034 0
1034 -64 -134 0
64 134 1034 0
65 -135 -1035 0
135 -65 -1035 0
1035 -65 -135 0
65 135 1035 0
-1031 -1032 -1033 -1034 -1035 0
66 -146 -1036 0
146 -66 -1036 0
1036 -66 -146 0
66 146 1036 0
-142 62 -1037 0
-62 142 -1037 0
1037 -62 -142 0
62 142 1037 0
63 -143 -1038 0
143 -63 -1038 0
1038 -63 -143 0
63 143 1038 0
64 -144 -1039 0
144 -64 -1039 0
1039 -64 -144 0
64 144 1039 0
65 -145 -1040 0
145 -65 -1040 0
1040 -65 -145 0
65 145 1040 0
-1036 -1037 -1038 -1039 -1040 0
66 -156 -1041 0
156 -66 -1041 0
1041 -66 -156 0
66 156 1041 0
-152 62 -1042 0
-62 152 -1042 0
1042 -62 -152 0
62 152 1042 0
63 -153 -1043 0
153 -63 -1043 0
1043 -63 -153 0
63 153 1043 0
64 -154 -1044 0
154 -64 -1044 0
1044 -64 -154 0
64 154 1044 0
65 -155 -1045 0
155 -65 -1045 0
1045 -65 -155 0
65 155 1045 0
-1041 -1042 -1043 -1044 -1045 0
66 -166 -1046 0
166 -66 -1046 0
1046 -66 -166 0
66 166 1046 0
-162 62 -1047 0
-62 162 -1047 0
1047 -62 -162 0
62 162 1047 0
63 -163 -1048 0
163 -63 -1048 0
1048 -63 -163 0
63 163 1048 0
64 -164 -1049 0
164 -64 -1049 0
1049 -64 -164 0
64 164 1049 0
65 -165 -1050 0
165 -65 -1050 0
1050 -65 -165 0
65 165 1050 0
-1046 -1047 -1048 -1049 -1050 0
66 -176 -1051 0
176 -66 -1051 0
1051 -66 -176 0
66 176 1051 0
-172 62 -1052 0
-62 172 -1052 0
1052 -62 -172 0
62 172 1052 0
63 -173 -1053 0
173 -63 -1053 0
1053 -63 -173 0
63 173 1053 0
64 -174 -1054 0
174 -64 -1054 0
1054 -64 -174 0
64 174 1054 0
65 -175 -1055 0
175 -65 -1055 0
1055 -65 -175 0
65 175 1055 0
-1051 -1052 -1053 -1054 -1055 0
66 -186 -1056 0
186 -66 -1056 0
1056 -66 -186 0
66 186 1056 0
-182 62 -1057 0
-62 182 -1057 0
1057 -62 -182 0
62 182 1057 0
63 -183 -1058 0
183 -63 -1058 0
1058 -63 -183 0
63 183 1058 0
64 -184 -1059 0
184 -64 -1059 0
1059 -64 -184 0
64 184 1059 0
65 -185 -1060 0
185 -65 -1060 0
1060 -65 -185 0
65 185 1060 0
-1056 -1057 -1058 -1059 -1060 0
66 -196 -1061 0
196 -66 -1061 0
1061 -66 -196 0
66 196 1061 0
-192 62 -1062 0
-62 192 -1062 0
1062 -62 -192 0
62 192 1062 0
63 -193 -1063 0
193 -63 -1063 0
1063 -63 -193 0
63 193 1063 0
64 -194 -1064 0
194 -64 -1064 0
1064 -64 -194 0
64 194 1064 0
65 -195 -1065 0
195 -65 -1065 0
1065 -65 -195 0
65 195 1065 0
-1061 -1062 -1063 -1064 -1065 0
66 -206 -1066 0
206 -66 -1066 0
1066 -66 -206 0
66 206 1066 0
-202 62 -1067 0
-62 202 -1067 0
1067 -62 -202 0
62 202 1067 0
63 -203 -1068 0
203 -63 -1068 0
1068 -63 -203 0
63 203 1068 0
64 -204 -1069 0
204 -64 -1069 0
1069 -64 -204 0
64 204 1069 0
65 -205 -1070 0
205 -65 -1070 0
1070 -65 -205 0
65 205 1070 0
-1066 -1067 -1068 -1069 -1070 0
66 -216 -1071 0
216 -66 -1071 0
1071 -66 -216 0
66 216 1071 0
-212 62 -1072 0
-62 212 -1072 0
1072 -62 -212 0
62 212 1072 0
63 -213 -1073 0
213 -63 -1073 0
1073 -63 -213 0
63 213 1073 0
64 -214 -1074 0
214 -64 -1074 0
1074 -64 -214 0
64 214 1074 0
65 -215 -1075 0
215 -65 -1075 0
1075 -65 -215 0
65 215 1075 0
-1071 -1072 -1073 -1074 -1075 0
66 -226 -1076 0
226 -66 -1076 0
1076 -66 -226 0
66 226 1076 0
-222 62 -1077 0
-62 222 -1077 0
1077 -62 -222 0
62 222 1077 0
63 -223 -1078 0
223 -63 -1078 0
1078 -63 -223 0
63 223 1078 0
64 -224 -1079 0
224 -64 -1079 0
1079 -64 -224 0
64 224 1079 0
65 -225 -1080 0
225 -65 -1080 0
1080 -65 -225 0
65 225 1080 0
-1076 -1077 -1078 -1079 -1080 0
66 -236 -1081 0
236 -66 -1081 0
1081 -66 -236 0
66 236 1081 0
-232 62 -1082 0
-62 232 -1082 0
1082 -62 -232 0
62 232 1082 0
63 -233 -1083 0
233 -63 -1083 0
1083 -63 -233 0
63 233 1083 0
64 -234 -1084 0
234 -64 -1084 0
1084 -64 -234 0
64 234 1084 0
65 -235 -1085 0
235 -65 -1085 0
1085 -65 -235 0
65 235 1085 0
-1081 -1082 -1083 -1084 -1085 0
66 -246 -1086 0
246 -66 -1086 0
1086 -66 -246 0
66 246 1086 0
-242 62 -1087 0
-62 242 -1087 0
1087 -62 -242 0
62 242 1087 0
63 -243 -1088 0
243 -63 -1088 0
1088 -63 -243 0
63 243 1088 0
64 -244 -1089 0
244 -64 -1089 0
1089 -64 -244 0
64 244 1089 0
65 -245 -1090 0
245 -65 -1090 0
1090 -65 -245 0
65 245 1090 0
-1086 -1087 -1088 -1089 -1090 0
76 -6 -1091 0
6 -76 -1091 0
-6 -76 1091 0
6 76 1091 0
72 -5 -1092 0
-72 5 -1092 0
-72 -5 1092 0
5 72 1092 0
73 -4 -1093 0
4 -73 -1093 0
-4 -73 1093 0
4 73 1093 0
74 -3 -1094 0
3 -74 -1094 0
-3 -74 1094 0
3 74 1094 0
75 -2 -1095 0
2 -75 -1095 0
-2 -75 1095 0
2 75 1095 0
-1091 -1092 -1093 -1094 -1095 0
76 -16 -1096 0
16 -76 -1096 0
-16 -76 1096 0
16 76 1096 0
-12 72 -1097 0
-72 12 -1097 0
-12 -72 1097 0
12 72 1097 0
73 -13 -1098 0
13 -73 -1098 0
-13 -73 1098 0
13 73 1098 0
74 -14 -1099 0
14 -74 -1099 0
-14 -74 1099 0
14 74 1099 0
75 -15 -1100 0
15 -75 -1100 0
-15 -75 1100 0
15 75 1100 0
-1096 -1097 -1098 -1099 -1100 0
76 -26 -1101 0
26 -76 -1101 0
-26 -76 1101 0
26 76 1101 0
-22 72 -1102 0
-72 22 -1102 0
-22 -72 1102 0
22 72 1102 0
73 -23 -1103 0
23 -73 -1103 0
-23 -73 1103 0
23 73 1103 0
74 -24 -1104 0
24 -74 -1104 0
-24 -74 1104 0
24 74 1104 0
75 -25 -1105 0
25 -75 -1105 0
-25 -75 1105 0
25 75 1105 0
-1101 -1102 -1103 -1104 -1105 0
76 -36 -1106 0
36 -76 -1106 0
-36 -76 1106 0
36 76 1106 0
-32 72 -1107 0
-72 32 -1107 0
-32 -72 1107 0
32 72 1107 0
73 -33 -1108 0
33 -73 -1108 0
-33 -73 1108 0
33 73 1108 0
74 -34 -1109 0
34 -74 -1109 0
-34 -74 1109 0
34 74 1109 0
75 -35 -1110 0
35 -75 -1110 0
-35 -75 1110 0
35 75 1110 0
-1106 -1107 -1108 -1109 -1110 0
76 -46 -1111 0
46 -76 -1111 0
-46 -76 1111 0
46 76 1111 0
-42 72 -1112 0
-72 42 -1112 0
-42 -72 1112 0
42 72 1112 0
73 -43 -1113 0
43 -73 -1113 0
-43 -73 1113 0
43 73 1113 0
74 -44 -1114 0
44 -74 -1114 0
-44 -74 1114 0
44 74 1114 0
75 -45 -1115 0
45 -75 -1115 0
-45 -75 1115 0
45 75 1115 0
-1111 -1112 -1113 -1114 -1115 0
76 -56 -1116 0
56 -76 -1116 0
-56 -76 1116 0
56 76 1116 0
-52 72 -1117 0
-72 52 -1117 0
-52 -72 1117 0
52 72 1117 0
73 -53 -1118 0
53 -73 -1118 0
-53 -73 1118 0
53 73 1118 0
74 -54 -1119 0
54 -74 -1119 0
-54 -74 1119 0
54 74 1119 0
75 -55 -1120 0
55 -75 -1120 0
-55 -75 1120 0
55 75 1120 0
-1116 -1117 -1118 -1119 -1120 0
76 -66 -1121 0
66 -76 -1121 0
-66 -76 1121 0
66 76 1121 0
-62 72 -1122 0
-72 62 -1122 0
-62 -72 1122 0
62 72 1122 0
73 -63 -1123 0
63 -73 -1123 0
-63 -73 1123 0
63 73 1123 0
74 -64 -1124 0
64 -74 -1124 0
-64 -74 1124 0
64 74 1124 0
75 -65 -1125 0
65 -75 -1125 0
-65 -75 1125 0
65 75 1125 0
-1121 -1122 -1123 -1124 -1125 0
76 -86 -1126 0
86 -76 -1126 0
1126 -76 -86 0
76 86 1126 0
-82 72 -1127 0
-72 82 -1127 0
1127 -72 -82 0
72 82 1127 0
73 -83 -1128 0
83 -73 -1128 0
1128 -73 -83 0
73 83 1128 0
74 -84 -1129 0
84 -74 -1129 0
1129 -74 -84 0
74 84 1129 0
75 -85 -1130 0
85 -75 -1130 0
1130 -75 -85 0
75 85 1130 0
-1126 -1127 -1128 -1129 -1130 0
76 -96 -1131 0
96 -76 -1131 0
1131 -76 -96 0
76 96 1131 0
-92 72 -1132 0
-72 92 -1132 0
1132 -72 -92 0
72 92 1132 0
73 -93 -1133 0
93 -73 -1133 0
1133 -73 -93 0
73 93 1133 0
74 -94 -1134 0
94 -74 -1134 0
1134 -74 -94 0
74 94 1134 0
75 -95 -1135 0
95 -75 -1135 0
1135 -75 -95 0
75 95 1135 0
-1131 -1132 -1133 -1134 -1135 0
76 -106 -1136 0
106 -76 -1136 0
1136 -76 -106 0
76 106 1136 0
-102 72 -1137 0
-72 102 -1137 0
1137 -72 -102 0
72 102 1137 0
73 -103 -1138 0
103 -73 -1138 0
1138 -73 -103 0
73 103 1138 0
74 -104 -1139 0
104 -74 -1139 0
1139 -74 -104 0
74 104 1139 0
75 -105 -1140 0
105 -75 -1140 0
1140 -75 -105 0
75 105 1140 0
-1136 -1137 -1138 -1139 -1140 0
76 -116 -1141 0
116 -76 -1141 0
1141 -76 -116 0
76 116 1141 0
-112 72 -1142 0
-72 112 -1142 0
1142 -72 -112 0
72 112 1142 0
73 -113 -1143 0
113 -73 -1143 0
1143 -73 -113 0
73 113 1143 0
74 -114 -1144 0
114 -74 -1144 0
1144 -74 -114 0
74 114 1144 0
75 -115 -1145 0
115 -75 -1145 0
1145 -75 -115 0
75 115 1145 0
-1141 -1142 -1143 -1144 -1145 0
76 -126 -1146 0
126 -76 -1146 0
1146 -76 -126 0
76 126 1146 0
-122 72 -1147 0
-72 122 -1147 0
1147 -72 -122 0
72 122 1147 0
73 -123 -1148 0
123 -73 -1148 0
1148 -73 -123 0
73 123 1148 0
74 -124 -1149 0
124 -74 -1149 0
1149 -74 -124 0
74 124 1149 0
75 -125 -1150 0
125 -75 -1150 0
1150 -75 -125 0
75 125 1150 0
-1146 -1147 -1148 -1149 -1150 0
76 -136 -1151 0
136 -76 -1151 0
1151 -76 -136 0
76 136 1151 0
-132 72 -1152 0
-72 132 -1152 0
1152 -72 -132 0
72 132 1152 0
73 -133 -1153 0
133 -73 -1153 0
1153 -73 -133 0
73 133 1153 0
74 -134 -1154 0
134 -74 -1154 0
1154 -74 -134 0
74 134 1154 0
75 -135 -1155 0
135 -75 -1155 0
1155 -75 -135 0
75 135 1155 0
-1151 -1152 -1153 -1154 -1155 0
76 -146 -1156 0
146 -76 -1156 0
1156 -76 -146 0
76 146 1156 0
-142 72 -1157 0
-72 142 -1157 0
1157 -72 -142 0
72 142 1157 0
73 -143 -1158 0
143 -73 -1158 0
1158 -73 -143 0
73 143 1158 0
74 -144 -1159 0
144 -74 -1159 0
1159 -74 -144 0
74 144 1159 0
75 -145 -1160 0
145 -75 -1160 0
1160 -75 -145 0
75 145 1160 0
-1156 -1157 -1158 -1159 -1160 0
76 -156 -1161 0
156 -76 -1161 0
1161 -76 -156 0
76 156 1161 0
-152 72 -1162 0
-72 152 -1162 0
1162 -72 -152 0
72 152 1162 0
73 -153 -1163 0
153 -73 -1163 0
1163 -73 -153 0
73 153 1163 0
74 -154 -1164 0
154 -74 -1164 0
1164 -74 -154 0
74 154 1164 0
75 -155 -1165 0
155 -75 -1165 0
1165 -75 -155 0
75 155 1165 0
-1161 -1162 -1163 -1164 -1165 0
76 -166 -1166 0
166 -76 -1166 0
1166 -76 -166 0
76 166 1166 0
-162 72 -1167 0
-72 162 -1167 0
1167 -72 -162 0
72 162 1167 0
73 -163 -1168 0
163 -73 -1168 0
1168 -73 -163 0
73 163 1168 0
74 -164 -1169 0
164 -74 -1169 0
1169 -74 -164 0
74 164 1169 0
75 -165 -1170 0
165 -75 -1170 0
1170 -75 -165 0
75 165 1170 0
-1166 -1167 -1168 -1169 -1170 0
76 -176 -1171 0
176 -76 -1171 0
1171 -76 -176 0
76 176 1171 0
-172 72 -1172 0
-72 172 -1172 0
1172 -72 -172 0
72 172 1172 0
73 -173 -1173 0
173 -73 -1173 0
1173 -73 -173 0
73 173 1173 0
74 -174 -1174 0
174 -74 -1174 0
1174 -74 -174 0
74 174 1174 0
75 -175 -1175 0
175 -75 -1175 0
1175 -75 -175 0
75 175 1175 0
-1171 -1172 -1173 -1174 -1175 0
76 -186 -1176 0
186 -76 -1176 0
1176 -76 -186 0
76 186 1176 0
-182 72 -1177 0
-72 182 -1177 0
1177 -72 -182 0
72 182 1177 0
73 -183 -1178 0
183 -73 -1178 0
1178 -73 -183 0
73 183 1178 0
74 -184 -1179 0
184 -74 -1179 0
1179 -74 -184 0
74 184 1179 0
75 -185 -1180 0
185 -75 -1180 0
1180 -75 -185 0
75 185 1180 0
-1176 -1177 -1178 -1179 -1180 0
76 -196 -1181 0
196 -76 -1181 0
1181 -76 -196 0
76 196 1181 0
-192 72 -1182 0
-72 192 -1182 0
1182 -72 -192 0
72 192 1182 0
73 -193 -1183 0
193 -73 -1183 0
1183 -73 -193 0
73 193 1183 0
74 -194 -1184 0
194 -74 -1184 0
1184 -74 -194 0
74 194 1184 0
75 -195 -1185 0
195 -75 -1185 0
1185 -75 -195 0
75 195 1185 0
-1181 -1182 -1183 -1184 -1185 0
76 -206 -1186 0
206 -76 -1186 0
1186 -76 -206 0
76 206 1186 0
-202 72 -1187 0
-72 202 -1187 0
1187 -72 -202 0
72 202 1187 0
73 -203 -1188 0
203 -73 -1188 0
1188 -73 -203 0
73 203 1188 0
74 -204 -1189 0
204 -74 -1189 0
1189 -74 -204 0
74 204 1189 0
75 -205 -1190 0
205 -75 -1190 0
1190 -75 -205 0
75 205 1190 0
-1186 -1187 -1188 -1189 -1190 0
76 -216 -1191 0
216 -76 -1191 0
1191 -76 -216 0
76 216 1191 0
-212 72 -1192 0
-72 212 -1192 0
1192 -72 -212 0
72 212 1192 0
73 -213 -1193 0
213 -73 -1193 0
1193 -73 -213 0
73 213 1193 0
74 -214 -1194 0
214 -74 -1194 0
1194 -74 -214 0
74 214 1194 0
75 -215 -1195 0
215 -75 -1195 0
1195 -75 -215 0
75 215 1195 0
-1191 -1192 -1193 -1194 -1195 0
76 -226 -1196 0
226 -76 -1196 0
1196 -76 -226 0
76 226 1196 0
-222 72 -1197 0
-72 222 -1197 0
1197 -72 -222 0
72 222 1197 0
73 -223 -1198 0
223 -73 -1198 0
1198 -73 -223 0
73 223 1198 0
74 -224 -1199 0
224 -74 -1199 0
1199 -74 -224 0
74 224 1199 0
75 -225 -1200 0
225 -75 -1200 0
1200 -75 -225 0
75 225 1200 0
-1196 -1197 -1198 -1199 -1200 0
76 -236 -1201 0
236 -76 -1201 0
1201 -76 -236 0
76 236 1201 0
-232 72 -1202 0
-72 232 -1202 0
1202 -72 -232 0
72 232 1202 0
73 -233 -1203 0
233 -73 -1203 0
1203 -73 -233 0
73 233 1203 0
74 -234 -1204 0
234 -74 -1204 0
1204 -74 -234 0
74 234 1204 0
75 -235 -1205 0
235 -75 -1205 0
1205 -75 -235 0
75 235 1205 0
-1201 -1202 -1203 -1204 -1205 0
76 -246 -1206 0
246 -76 -1206 0
1206 -76 -246 0
76 246 1206 0
-242 72 -1207 0
-72 242 -1207 0
1207 -72 -242 0
72 242 1207 0
73 -243 -1208 0
243 -73 -1208 0
1208 -73 -243 0
73 243 1208 0
74 -244 -1209 0
244 -74 -1209 0
1209 -74 -244 0
74 244 1209 0
75 -245 -1210 0
245 -75 -1210 0
1210 -75 -245 0
75 245 1210 0
-1206 -1207 -1208 -1209 -1210 0
86 -6 -1211 0
6 -86 -1211 0
-6 -86 1211 0
6 86 1211 0
82 -5 -1212 0
-82 5 -1212 0
-82 -5 1212 0
5 82 1212 0
83 -4 -1213 0
4 -83 -1213 0
-4 -83 1213 0
4 83 1213 0
84 -3 -1214 0
3 -84 -1214 0
-3 -84 1214 0
3 84 1214 0
85 -2 -1215 0
2 -85 -1215 0
-2 -85 1215 0
2 85 1215 0
-1211 -1212 -1213 -1214 -1215 0
86 -16 -1216 0
16 -86 -1216 0
-16 -86 1216 0
16 86 1216 0
-12 82 -1217 0
-82 12 -1217 0
-12 -82 1217 0
12 82 1217 0
83 -13 -1218 0
13 -83 -1218 0
-13 -83 1218 0
13 83 1218 0
84 -14 -1219 0
14 -84 -1219 0
-14 -84 1219 0
14 84 1219 0
85 -15 -1220 0
15 -85 -1220 0
-15 -85 1220 0
15 85 1220 0
-1216 -1217 -1218 -1219 -1220 0
86 -26 -1221 0
26 -86 -1221 0
-26 -86 1221 0
26 86 1221 0
-22 82 -1222 0
-82 22 -1222 0
-22 -82 1222 0
22 82 1222 0
83 -23 -1223 0
23 -83 -1223 0
-23 -83 1223 0
23 83 1223 0
84 -24 -1224 0
24 -84 -1224 0
-24 -84 1224 0
24 84 1224 0
85 -25 -1225 0
25 -85 -1225 0
-25 -85 1225 0
25 85 1225 0
-1221 -1222 -1223 -1224 -1225 0
86 -36 -1226 0
36 -86 -1226 0
-36 -86 1226 0
36 86 1226 0
-32 82 -1227 0
-82 32 -1227 0
-32 -82 1227 0
32 82 1227 0
83 -33 -1228 0
33 -83 -1228 0
-33 -83 1228 0
33 83 1228 0
84 -34 -1229 0
34 -84 -1229 0
-34 -84 1229 0
34 84 1229 0
85 -35 -1230 0
35 -85 -1230 0
-35 -85 1230 0
35 85 1230 0
-1226 -1227 -1228 -1229 -1230 0
86 -46 -1231 0
46 -86 -1231 0
-46 -86 1231 0
46 86 1231 0
-42 82 -1232 0
-82 42 -1232 0
-42 -82 1232 0
42 82 1232 0
83 -43 -1233 0
43 -83 -1233 0
-43 -83 1233 0
43 83 1233 0
84 -44 -1234 0
44 -84 -1234 0
-44 -84 1234 0
44 84 1234 0
85 -45 -1235 0
45 -85 -1235 0
-45 -85 1235 0
45 85 1235 0
-1231 -1232 -1233 -1234 -1235 0
86 -56 -1236 0
56 -86 -1236 0
-56 -86 1236 0
56 86 1236 0
-52 82 -1237 0
-82 52 -1237 0
-52 -82 1237 0
52 82 1237 0
83 -53 -1238 0
53 -83 -1238 0
-53 -83 1238 0
53 83 1238 0
84 -54 -1239 0
54 -84 -1239 0
-54 -84 1239 0
54 84 1239 0
85 -55 -1240 0
55 -85 -1240 0
-55 -85 1240 0
55 85 1240 0
-1236 -1237 -1238 -1239 -1240 0
86 -66 -1241 0
66 -86 -1241 0
-66 -86 1241 0
66 86 1241 0
-62 82 -1242 0
-82 62 -1242 0
-62 -82 1242 0
62 82 1242 0
83 -63 -1243 0
63 -83 -1243 0
-63 -83 1243 0
63 83 1243 0
84 -64 -1244 0
64 -84 -1244 0
-64 -84 1244 0
64 84 1244 0
85 -65 -1245 0
65 -85 -1245 0
-65 -85 1245 0
65 85 1245 0
-1241 -1242 -1243 -1244 -1245 0
86 -76 -1246 0
76 -86 -1246 0
-76 -86 1246 0
76 86 1246 0
-72 82 -1247 0
-82 72 -1247 0
-72 -82 1247 0
72 82 1247 0
83 -73 -1248 0
73 -83 -1248 0
-73 -83 1248 0
73 83 1248 0
84 -74 -1249 0
74 -84 -1249 0
-74 -84 1249 0
74 84 1249 0
85 -75 -1250 0
75 -85 -1250 0
-75 -85 1250 0
75 85 1250 0
-1246 -1247 -1248 -1249 -1250 0
86 -96 -1251 0
96 -86 -1251 0
1251 -86 -96 0
86 96 1251 0
-92 82 -1252 0
-82 92 -1252 0
1252 -82 -92 0
82 92 1252 0
83 -93 -1253 0
93 -83 -1253 0
1253 -83 -93 0
83 93 1253 0
84 -94 -1254 0
94 -84 -1254 0
1254 -84 -94 0
84 94 1254 0
85 -95 -1255 0
95 -85 -1255 0
1255 -85 -95 0
85 95 1255 0
-1251 -1252 -1253 -1254 -1255 0
86 -106 -1256 0
106 -86 -1256 0
1256 -86 -106 0
86 106 1256 0
-102 82 -1257 0
-82 102 -1257 0
1257 -82 -102 0
82 102 1257 0
83 -103 -1258 0
103 -83 -1258 0
1258 -83 -103 0
83 103 1258 0
84 -104 -1259 0
104 -84 -1259 0
1259 -84 -104 0
84 104 1259 0
85 -105 -1260 0
105 -85 -1260 0
1260 -85 -105 0
85 105 1260 0
-1256 -1257 -1258 -1259 -1260 0
86 -116 -1261 0
116 -86 -1261 0
1261 -86 -116 0
86 116 1261 0
-112 82 -1262 0
-82 112 -1262 0
1262 -82 -112 0
82 112 1262 0
83 -113 -1263 0
113 -83 -1263 0
1263 -83 -113 0
83 113 1263 0
84 -114 -1264 0
114 -84 -1264 0
1264 -84 -114 0
84 114 1264 0
85 -115 -1265 0
115 -85 -1265 0
1265 -85 -115 0
85 115 1265 0
-1261 -1262 -1263 -1264 -1265 0
86 -126 -1266 0
126 -86 -1266 0
1266 -86 -126 0
86 126 1266 0
-122 82 -1267 0
-82 122 -1267 0
1267 -82 -122 0
82 122 1267 0
83 -123 -1268 0
123 -83 -1268 0
1268 -83 -123 0
83 123 1268 0
84 -124 -1269 0
124 -84 -1269 0
1269 -84 -124 0
84 124 1269 0
85 -125 -1270 0
125 -85 -1270 0
1270 -85 -125 0
85 125 1270 0
-1266 -1267 -1268 -1269 -1270 0
86 -136 -1271 0
136 -86 -1271 0
1271 -86 -136 0
86 136 1271 0
-132 82 -1272 0
-82 132 -1272 0
1272 -82 -132 0
82 132 1272 0
83 -133 -1273 0
133 -83 -1273 0
1273 -83 -133 0
83 133 1273 0
84 -134 -1274 0
134 -84 -1274 0
1274 -84 -134 0
84 134 1274 0
85 -135 -1275 0
135 -85 -1275 0
1275 -85 -135 0
85 135 1275 0
-1271 -1272 -1273 -1274 -1275 0
86 -146 -1276 0
146 -86 -1276 0
1276 -86 -146 0
86 146 1276 0
-142 82 -1277 0
-82 142 -1277 0
1277 -82 -142 0
82 142 1277 0
83 -143 -1278 0
143 -83 -1278 0
1278 -83 -143 0
83 143 1278 0
84 -144 -1279 0
144 -84 -1279 0
1279 -84 -144 0
84 144 1279 0
85 -145 -1280 0
145 -85 -1280 0
1280 -85 -145 0
85 145 1280 0
-1276 -1277 -1278 -1279 -1280 0
86 -156 -1281 0
156 -86 -1281 0
1281 -86 -156 0
86 156 1281 0
-152 82 -1282 0
-82 152 -1282 0
1282 -82 -152 0
82 152 1282 0
83 -153 -1283 0
153 -83 -1283 0
1283 -83 -153 0
83 153 1283 0
84 -154 -1284 0
154 -84 -1284 0
1284 -84 -154 0
84 154 1284 0
85 -155 -1285 0
155 -85 -1285 0
1285 -85 -155 0
85 155 1285 0
-1281 -1282 -1283 -1284 -1285 0
86 -166 -1286 0
166 -86 -1286 0
1286 -86 -166 0
86 166 1286 0
-162 82 -1287 0
-82 162 -1287 0
1287 -82 -162 0
82 162 1287 0
83 -163 -1288 0
163 -83 -1288 0
1288 -83 -163 0
83 163 1288 0
84 -164 -1289 0
164 -84 -1289 0
1289 -84 -164 0
84 164 1289 0
85 -165 -1290 0
165 -85 -1290 0
1290 -85 -165 0
85 165 1290 0
-1286 -1287 -1288 -1289 -1290 0
86 -176 -1291 0
176 -86 -1291 0
1291 -86 -176 0
86 176 1291 0
-172 82 -1292 0
-82 172 -1292 0
1292 -82 -172 0
82 172 1292 0
83 -173 -1293 0
173 -83 -1293 0
1293 -83 -173 0
83 173 1293 0
84 -174 -1294 0
174 -84 -1294 0
1294 -84 -174 0
84 174 1294 0
85 -175 -1295 0
175 -85 -1295 0
1295 -85 -175 0
85 175 1295 0
-1291 -1292 -1293 -1294 -1295 0
86 -186 -1296 0
186 -86 -1296 0
1296 -86 -186 0
86 186 1296 0
-182 82 -1297 0
-82 182 -1297 0
1297 -82 -182 0
82 182 1297 0
83 -183 -1298 0
183 -83 -1298 0
1298 -83 -183 0
83 183 1298 0
84 -184 -1299 0
184 -84 -1299 0
1299 -84 -184 0
84 184 1299 0
85 -185 -1300 0
185 -85 -1300 0
1300 -85 -185 0
85 185 1300 0
-1296 -1297 -1298 -1299 -1300 0
86 -196 -1301 0
196 -86 -1301 0
1301 -86 -196 0
86 196 1301 0
-192 82 -1302 0
-82 192 -1302 0
1302 -82 -192 0
82 192 1302 0
83 -193 -1303 0
193 -83 -1303 0
1303 -83 -193 0
83 193 1303 0
84 -194 -1304 0
194 -84 -1304 0
1304 -84 -194 0
84 194 1304 0
85 -195 -1305 0
195 -85 -1305 0
1305 -85 -195 0
85 195 1305 0
-1301 -1302 -1303 -1304 -1305 0
86 -206 -1306 0
206 -86 -1306 0
1306 -86 -206 0
86 206 1306 0
-202 82 -1307 0
-82 202 -1307 0
1307 -82 -202 0
82 202 1307 0
83 -203 -1308 0
203 -83 -1308 0
1308 -83 -203 0
83 203 1308 0
84 -204 -1309 0
204 -84 -1309 0
1309 -84 -204 0
84 204 1309 0
85 -205 -1310 0
205 -85 -1310 0
1310 -85 -205 0
85 205 1310 0
-1306 -1307 -1308 -1309 -1310 0
86 -216 -1311 0
216 -86 -1311 0
1311 -86 -216 0
86 216 1311 0
-212 82 -1312 0
-82 212 -1312 0
1312 -82 -212 0
82 212 1312 0
83 -213 -1313 0
213 -83 -1313 0
1313 -83 -213 0
83 213 1313 0
84 -214 -1314 0
214 -84 -1314 0
1314 -84 -214 0
84 214 1314 0
85 -215 -1315 0
215 -85 -1315 0
1315 -85 -215 0
85 215 1315 0
-1311 -1312 -1313 -1314 -1315 0
86 -226 -1316 0
226 -86 -1316 0
1316 -86 -226 0
86 226 1316 0
-222 82 -1317 0
-82 222 -1317 0
1317 -82 -222 0
82 222 1317 0
83 -223 -1318 0
223 -83 -1318 0
1318 -83 -223 0
83 223 1318 0
84 -224 -1319 0
224 -84 -1319 0
1319 -84 -224 0
84 224 1319 0
85 -225 -1320 0
225 -85 -1320 0
1320 -85 -225 0
85 225 1320 0
-1316 -1317 -1318 -1319 -1320 0
86 -236 -1321 0
236 -86 -1321 0
1321 -86 -236 0
86 236 1321 0
-232 82 -1322 0
-82 232 -1322 0
1322 -82 -232 0
82 232 1322 0
83 -233 -1323 0
233 -83 -1323 0
1323 -83 -233 0
83 233 1323 0
84 -234 -1324 0
234 -84 -1324 0
1324 -84 -234 0
84 234 1324 0
85 -235 -1325 0
235 -85 -1325 0
1325 -85 -235 0
85 235 1325 0
-1321 -1322 -1323 -1324 -1325 0
86 -246 -1326 0
246 -86 -1326 0
1326 -86 -246 0
86 246 1326 0
-242 82 -1327 0
-82 242 -1327 0
1327 -82 -242 0
82 242 1327 0
83 -243 -1328 0
243 -83 -1328 0
1328 -83 -243 0
83 243 1328 0
84 -244 -1329 0
244 -84 -1329 0
1329 -84 -244 0
84 244 1329 0
85 -245 -1330 0
245 -85 -1330 0
1330 -85 -245 0
85 245 1330 0
-1326 -1327 -1328 -1329 -1330 0
96 -6 -1331 0
6 -96 -1331 0
-6 -96 1331 0
6 96 1331 0
92 -5 -1332 0
-92 5 -1332 0
-92 -5 1332 0
5 92 1332 0
93 -4 -1333 0
4 -93 -1333 0
-4 -93 1333 0
4 93 1333 0
94 -3 -1334 0
3 -94 -1334 0
-3 -94 1334 0
3 94 1334 0
95 -2 -1335 0
2 -95 -1335 0
-2 -95 1335 0
2 95 1335 0
-1331 -1332 -1333 -1334 -1335 0
96 -16 -1336 0
16 -96 -1336 0
-16 -96 1336 0
16 96 1336 0
-12 92 -1337 0
-92 12 -1337 0
-12 -92 1337 0
12 92 1337 0
93 -13 -1338 0
13 -93 -1338 0
-13 -93 1338 0
13 93 1338 0
94 -14 -1339 0
14 -94 -1339 0
-14 -94 1339 0
14 94 1339 0
95 -15 -1340 0
15 -95 -1340 0
-15 -95 1340 0
15 95 1340 0
-1336 -1337 -1338 -1339 -1340 0
96 -26 -1341 0
26 -96 -1341 0
-26 -96 1341 0
26 96 1341 0
-22 92 -1342 0
-92 22 -1342 0
-22 -92 1342 0
22 92 1342 0
93 -23 -1343 0
23 -93 -1343 0
-23 -93 1343 0
23 93 1343 0
94 -24 -1344 0
24 -94 -1344 0
-24 -94 1344 0
24 94 1344 0
95 -25 -1345 0
25 -95 -1345 0
-25 -95 1345 0
25 95 1345 0
-1341 -1342 -1343 -1344 -1345 0
96 -36 -1346 0
36 -96 -1346 0
-36 -96 1346 0
36 96 1346 0
-32 92 -1347 0
-92 32 -1347 0
-32 -92 1347 0
32 92 1347 0
93 -33 -1348 0
33 -93 -1348 0
-33 -93 1348 0
33 93 1348 0
94 -34 -1349 0
34 -94 -1349 0
-34 -94 1349 0
34 94 1349 0
95 -35 -1350 0
35 -95 -1350 0
-35 -95 1350 0
35 95 1350 0
-1346 -1347 -1348 -1349 -1350 0
96 -46 -1351 0
46 -96 -1351 0
-46 -96 1351 0
46 96 1351 0
-42 92 -1352 0
-92 42 -1352 0
-42 -92 1352 0
42 92 1352 0
93 -43 -1353 0
43 -93 -1353 0
-43 -93 1353 0
43 93 1353 0
94 -44 -1354 0
44 -94 -1354 0
-44 -94 1354 0
44 94 1354 0
95 -45 -1355 0
45 -95 -1355 0
-45 -95 1355 0
45 95 1355 0
-1351 -1352 -1353 -1354 -1355 0
96 -56 -1356 0
56 -96 -1356 0
-56 -96 1356 0
56 96 1356 0
-52 92 -1357 0
-92 52 -1357 0
-52 -92 1357 0
52 92 1357 0
93 -53 -1358 0
53 -93 -1358 0
-53 -93 1358 0
53 93 1358 0
94 -54 -1359 0
54 -94 -1359 0
-54 -94 1359 0
54 94 1359 0
95 -55 -1360 0
55 -95 -1360 0
-55 -95 1360 0
55 95 1360 0
-1356 -1357 -1358 -1359 -1360 0
96 -66 -1361 0
66 -96 -1361 0
-66 -96 1361 0
66 96 1361 0
-62 92 -1362 0
-92 62 -1362 0
-62 -92 1362 0
62 92 1362 0
93 -63 -1363 0
63 -93 -1363 0
-63 -93 1363 0
63 93 1363 0
94 -64 -1364 0
64 -94 -1364 0
-64 -94 1364 0
64 94 1364 0
95 -65 -1365 0
65 -95 -1365 0
-65 -95 1365 0
65 95 1365 0
-1361 -1362 -1363 -1364 -1365 0
96 -76 -1366 0
76 -96 -1366 0
-76 -96 1366 0
76 96 1366 0
-72 92 -1367 0
-92 72 -1367 0
-72 -92 1367 0
72 92 1367 0
93 -73 -1368 0
73 -93 -1368 0
-73 -93 1368 0
73 93 1368 0
94 -74 -1369 0
74 -94 -1369 0
-74 -94 1369 0
74 94 1369 0
95 -75 -1370 0
75 -95 -1370 0
-75 -95 1370 0
75 95 1370 0
-1366 -1367 -1368 -1369 -1370 0
96 -86 -1371 0
86 -96 -1371 0
-86 -96 1371 0
86 96 1371 0
-82 92 -1372 0
-92 82 -1372 0
-82 -92 1372 0
82 92 1372 0
93 -83 -1373 0
83 -93 -1373 0
-83 -93 1373 0
83 93 1373 0
94 -84 -1374 0
84 -94 -1374 0
-84 -94 1374 0
84 94 1374 0
95 -85 -1375 0
85 -95 -1375 0
-85 -95 1375 0
85 95 1375 0
-1371 -1372 -1373 -1374 -1375 0
96 -106 -1376 0
106 -96 -1376 0
1376 -96 -106 0
96 106 1376 0
-102 92 -1377 0
-92 102 -1377 0
1377 -92 -102 0
92 102 1377 0
93 -103 -1378 0
103 -93 -1378 0
1378 -93 -103 0
93 103 1378 0
94 -104 -1379 0
104 -94 -1379 0
1379 -94 -104 0
94 104 1379 0
95 -105 -1380 0
105 -95 -1380 0
1380 -95 -105 0
95 105 1380 0
-1376 -1377 -1378 -1379 -1380 0
96 -116 -1381 0
116 -96 -1381 0
1381 -96 -116 0
96 116 1381 0
-112 92 -1382 0
-92 112 -1382 0
1382 -92 -112 0
92 112 1382 0
93 -113 -1383 0
113 -93 -1383 0
1383 -93 -113 0
93 113 1383 0
94 -114 -1384 0
114 -94 -1384 0
1384 -94 -114 0
94 114 1384 0
95 -115 -1385 0
115 -95 -1385 0
1385 -95 -115 0
95 115 1385 0
-1381 -1382 -1383 -1384 -1385 0
96 -126 -1386 0
126 -96 -1386 0
1386 -96 -126 0
96 126 1386 0
-122 92 -1387 0
-92 122 -1387 0
1387 -92 -122 0
92 122 1387 0
93 -123 -1388 0
123 -93 -1388 0
1388 -93 -123 0
93 123 1388 0
94 -124 -1389 0
124 -94 -1389 0
1389 -94 -124 0
94 124 1389 0
95 -125 -1390 0
125 -95 -1390 0
1390 -95 -125 0
95 125 1390 0
-1386 -1387 -1388 -1389 -1390 0
96 -136 -1391 0
136 -96 -1391 0
1391 -96 -136 0
96 136 1391 0
-132 92 -1392 0
-92 132 -1392 0
1392 -92 -132 0
92 132 1392 0
93 -133 -1393 0
133 -93 -1393 0
1393 -93 -133 0
93 133 1393 0
94 -134 -1394 0
134 -94 -1394 0
1394 -94 -134 0
94 134 1394 0
95 -135 -1395 0
135 -95 -1395 0
1395 -95 -135 0
95 135 1395 0
-1391 -1392 -1393 -1394 -1395 0
96 -146 -1396 0
146 -96 -1396 0
1396 -96 -146 0
96 146 1396 0
-142 92 -1397 0
-92 142 -1397 0
1397 -92 -142 0
92 142 1397 0
93 -143 -1398 0
143 -93 -1398 0
1398 -93 -143 0
93 143 1398 0
94 -144 -1399 0
144 -94 -1399 0
1399 -94 -144 0
94 144 1399 0
95 -145 -1400 0
145 -95 -1400 0
1400 -95 -145 0
95 145 1400 0
-1396 -1397 -1398 -1399 -1400 0
96 -156 -1401 0
156 -96 -1401 0
1401 -96 -156 0
96 156 1401 0
-152 92 -1402 0
-92 152 -1402 0
1402 -92 -152 0
92 152 1402 0
93 -153 -1403 0
153 -93 -1403 0
1403 -93 -153 0
93 153 1403 0
94 -154 -1404 0
154 -94 -1404 0
1404 -94 -154 0
94 154 1404 0
95 -155 -1405 0
155 -95 -1405 0
1405 -95 -155 0
95 155 1405 0
-1401 -1402 -1403 -1404 -1405 0
96 -166 -1406 0
166 -96 -1406 0
1406 -96 -166 0
96 166 1406 0
-162 92 -1407 0
-92 162 -1407 0
1407 -92 -162 0
92 162 1407 0
93 -163 -1408 0
163 -93 -1408 0
1408 -93 -163 0
93 163 1408 0
94 -164 -1409 0
164 -94 -1409 0
1409 -94 -164 0
94 164 1409 0
95 -165 -1410 0
165 -95 -1410 0
1410 -95 -165 0
95 165 1410 0
-1406 -1407 -1408 -1409 -1410 0
96 -176 -1411 0
176 -96 -1411 0
1411 -96 -176 0
96 176 1411 0
-172 92 -1412 0
-92 172 -1412 0
1412 -92 -172 0
92 172 1412 0
93 -173 -1413 0
173 -93 -1413 0
1413 -93 -173 0
93 173 1413 0
94 -174 -1414 0
174 -94 -1414 0
1414 -94 -174 0
94 174 1414 0
95 -175 -1415 0
175 -95 -1415 0
1415 -95 -175 0
95 175 1415 0
-1411 -1412 -1413 -1414 -1415 0
96 -186 -1416 0
186 -96 -1416 0
1416 -96 -186 0
96 186 1416 0
-182 92 -1417 0
-92 182 -1417 0
1417 -92 -182 0
92 182 1417 0
93 -183 -1418 0
183 -93 -1418 0
1418 -93 -183 0
93 183 1418 0
94 -184 -1419 0
184 -94 -1419 0
1419 -94 -184 0
94 184 1419 0
95 -185 -1420 0
185 -95 -1420 0
1420 -95 -185 0
95 185 1420 0
-1416 -1417 -1418 -1419 -1420 0
96 -196 -1421 0
196 -96 -1421 0
1421 -96 -196 0
96 196 1421 0
-192 92 -1422 0
-92 192 -1422 0
1422 -92 -192 0
92 192 1422 0
93 -193 -1423 0
193 -93 -1423 0
1423 -93 -193 0
93 193 1423 0
94 -194 -1424 0
194 -94 -1424 0
1424 -94 -194 0
94 194 1424 0
95 -195 -1425 0
195 -95 -1425 0
1425 -95 -195 0
95 195 1425 0
-1421 -1422 -1423 -1424 -1425 0
96 -206 -1426 0
206 -96 -1426 0
1426 -96 -206 0
96 206 1426 0
-202 92 -1427 0
-92 202 -1427 0
1427 -92 -202 0
92 202 1427 0
93 -203 -1428 0
203 -93 -1428 0
1428 -93 -203 0
93 203 1428 0
94 -204 -1429 0
204 -94 -1429 0
1429 -94 -204 0
94 204 1429 0
95 -205 -1430 0
205 -95 -1430 0
1430 -95 -205 0
95 205 1430 0
-1426 -1427 -1428 -1429 -1430 0
96 -216 -1431 0
216 -96 -1431 0
1431 -96 -216 0
96 216 1431 0
-212 92 -1432 0
-92 212 -1432 0
1432 -92 -212 0
92 212 1432 0
93 -213 -1433 0
213 -93 -1433 0
1433 -93 -213 0
93 213 1433 0
94 -214 -1434 0
214 -94 -1434 0
1434 -94 -214 0
94 214 1434 0
95 -215 -1435 0
215 -95 -1435 0
1435 -95 -215 0
95 215 1435 0
-1431 -1432 -1433 -1434 -1435 0
96 -226 -1436 0
226 -96 -1436 0
1436 -96 -226 0
96 226 1436 0
-222 92 -1437 0
-92 222 -1437 0
1437 -92 -222 0
92 222 1437 0
93 -223 -1438 0
223 -93 -1438 0
1438 -93 -223 0
93 223 1438 0
94 -224 -1439 0
224 -94 -1439 0
1439 -94 -224 0
94 224 1439 0
95 -225 -1440 0
225 -95 -1440 0
1440 -95 -225 0
95 225 1440 0
-1436 -1437 -1438 -1439 -1440 0
96 -236 -1441 0
236 -96 -1441 0
1441 -96 -236 0
96 236 1441 0
-232 92 -1442 0
-92 232 -1442 0
1442 -92 -232 0
92 232 1442 0
93 -233 -1443 0
233 -93 -1443 0
1443 -93 -233 0
93 233 1443 0
94 -234 -1444 0
234 -94 -1444 0
1444 -94 -234 0
94 234 1444 0
95 -235 -1445 0
235 -95 -1445 0
1445 -95 -235 0
95 235 1445 0
-1441 -1442 -1443 -1444 -1445 0
96 -246 -1446 0
246 -96 -1446 0
1446 -96 -246 0
96 246 1446 0
-242 92 -1447 0
-92 242 -1447 0
1447 -92 -242 0
92 242 1447 0
93 -243 -1448 0
243 -93 -1448 0
1448 -93 -243 0
93 243 1448 0
94 -244 -1449 0
244 -94 -1449 0
1449 -94 -244 0
94 244 1449 0
95 -245 -1450 0
245 -95 -1450 0
1450 -95 -245 0
95 245 1450 0
-1446 -1447 -1448 -1449 -1450 0
106 -6 -1451 0
6 -106 -1451 0
-6 -106 1451 0
6 106 1451 0
102 -5 -1452 0
-102 5 -1452 0
-102 -5 1452 0
5 102 1452 0
103 -4 -1453 0
4 -103 -1453 0
-4 -103 1453 0
4 103 1453 0
104 -3 -1454 0
3 -104 -1454 0
-3 -104 1454 0
3 104 1454 0
105 -2 -1455 0
2 -105 -1455 0
-2 -105 1455 0
2 105 1455 0
-1451 -1452 -1453 -1454 -1455 0
106 -16 -1456 0
16 -106 -1456 0
-16 -106 1456 0
16 106 1456 0
-12 102 -1457 0
-102 12 -1457 0
-12 -102 1457 0
12 102 1457 0
103 -13 -1458 0
13 -103 -1458 0
-13 -103 1458 0
13 103 1458 0
104 -14 -1459 0
14 -104 -1459 0
-14 -104 1459 0
14 104 1459 0
105 -15 -1460 0
15 -105 -1460 0
-15 -105 1460 0
15 105 1460 0
-1456 -1457 -1458 -1459 -1460 0
106 -26 -1461 0
26 -106 -1461 0
-26 -106 1461 0
26 106 1461 0
-22 102 -1462 0
-102 22 -1462 0
-22 -102 1462 0
22 102 1462 0
103 -23 -1463 0
23 -103 -1463 0
-23 -103 1463 0
23 103 1463 0
104 -24 -1464 0
24 -104 -1464 0
-24 -104 1464 0
24 104 1464 0
105 -25 -1465 0
25 -105 -1465 0
-25 -105 1465 0
25 105 1465 0
-1461 -1462 -1463 -1464 -1465 0
106 -36 -1466 0
36 -106 -1466 0
-36 -106 1466 0
36 106 1466 0
-32 102 -1467 0
-102 32 -1467 0
-32 -102 1467 0
32 102 1467 0
103 -33 -1468 0
33 -103 -1468 0
-33 -103 1468 0
33 103 1468 0
104 -34 -1469 0
34 -104 -1469 0
-34 -104 1469 0
34 104 1469 0
105 -35 -1470 0
35 -105 -1470 0
-35 -105 1470 0
35 105 1470 0
-1466 -1467 -1468 -1469 -1470 0
106 -46 -1471 0
46 -106 -1471 0
-46 -106 1471 0
46 106 1471 0
-42 102 -1472 0
-102 42 -1472 0
-42 -102 1472 0
42 102 1472 0
103 -43 -1473 0
43 -103 -1473 0
-43 -103 1473 0
43 103 1473 0
104 -44 -1474 0
44 -104 -1474 0
-44 -104 1474 0
44 104 1474 0
105 -45 -1475 0
45 -105 -1475 0
-45 -105 1475 0
45 105 1475 0
-1471 -1472 -1473 -1474 -1475 0
106 -56 -1476 0
56 -106 -1476 0
-56 -106 1476 0
56 106 1476 0
-52 102 -1477 0
-102 52 -1477 0
-52 -102 1477 0
52 102 1477 0
103 -53 -1478 0
53 -103 -1478 0
-53 -103 1478 0
53 103 1478 0
104 -54 -1479 0
54 -104 -1479 0
-54 -104 1479 0
54 104 1479 0
105 -55 -1480 0
55 -105 -1480 0
-55 -105 1480 0
55 105 1480 0
-1476 -1477 -1478 -1479 -1480 0
106 -66 -1481 0
66 -106 -1481 0
-66 -106 1481 0
66 106 1481 0
-62 102 -1482 0
-102 62 -1482 0
-62 -102 1482 0
62 102 1482 0
103 -63 -1483 0
63 -103 -1483 0
-63 -103 1483 0
63 103 1483 0
104 -64 -1484 0
64 -104 -1484 0
-64 -104 1484 0
64 104 1484 0
105 -65 -1485 0
65 -105 -1485 0
-65 -105 1485 0
65 105 1485 0
-1481 -1482 -1483 -1484 -1485 0
106 -76 -1486 0
76 -106 -1486 0
-76 -106 1486 0
76 106 1486 0
-72 102 -1487 0
-102 72 -1487 0
-72 -102 1487 0
72 102 1487 0
103 -73 -1488 0
73 -103 -1488 0
-73 -103 1488 0
73 103 1488 0
104 -74 -1489 0
74 -104 -1489 0
-74 -104 1489 0
74 104 1489 0
105 -75 -1490 0
75 -105 -1490 0
-75 -105 1490 0
75 105 1490 0
-1486 -1487 -1488 -1489 -1490 0
106 -86 -1491 0
86 -106 -1491 0
-86 -106 1491 0
86 106 1491 0
-82 102 -1492 0
-102 82 -1492 0
-82 -102 1492 0
82 102 1492 0
103 -83 -1493 0
83 -103 -1493 0
-83 -103 1493 0
83 103 1493 0
104 -84 -1494 0
84 -104 -1494 0
-84 -104 1494 0
84 104 1494 0
105 -85 -1495 0
85 -105 -1495 0
-85 -105 1495 0
85 105 1495 0
-1491 -1492 -1493 -1494 -1495 0
106 -96 -1496 0
96 -106 -1496 0
-96 -106 1496 0
96 106 1496 0
-92 102 -1497 0
-102 92 -1497 0
-92 -102 1497 0
92 102 1497 0
103 -93 -1498 0
93 -103 -1498 0
-93 -103 1498 0
93 103 1498 0
104 -94 -1499 0
94 -104 -1499 0
-94 -104 1499 0
94 104 1499 0
105 -95 -1500 0
95 -105 -1500 0
-95 -105 1500 0
95 105 1500 0
-1496 -1497 -1498 -1499 -1500 0
106 -116 -1501 0
116 -106 -1501 0
1501 -106 -116 0
106 116 1501 0
-112 102 -1502 0
-102 112 -1502 0
1502 -102 -112 0
102 112 1502 0
103 -113 -1503 0
113 -103 -1503 0
1503 -103 -113 0
103 113 1503 0
104 -114 -1504 0
114 -104 -1504 0
1504 -104 -114 0
104 114 1504 0
105 -115 -1505 0
115 -105 -1505 0
1505 -105 -115 0
105 115 1505 0
-1501 -1502 -1503 -1504 -1505 0
106 -126 -1506 0
126 -106 -1506 0
1506 -106 -126 0
106 126 1506 0
-122 102 -1507 0
-102 122 -1507 0
1507 -102 -122 0
102 122 1507 0
103 -123 -1508 0
123 -103 -1508 0
1508 -103 -123 0
103 123 1508 0
104 -124 -1509 0
124 -104 -1509 0
1509 -104 -124 0
104 124 1509 0
105 -125 -1510 0
125 -105 -1510 0
1510 -105 -125 0
105 125 1510 0
-1506 -1507 -1508 -1509 -1510 0
106 -136 -1511 0
136 -106 -1511 0
1511 -106 -136 0
106 136 1511 0
-132 102 -1512 0
-102 132 -1512 0
1512 -102 -132 0
102 132 1512 0
103 -133 -1513 0
133 -103 -1513 0
1513 -103 -133 0
103 133 1513 0
104 -134 -1514 0
134 -104 -1514 0
1514 -104 -134 0
104 134 1514 0
105 -135 -1515 0
135 -105 -1515 0
1515 -105 -135 0
105 135 1515 0
-1511 -1512 -1513 -1514 -1515 0
106 -146 -1516 0
146 -106 -1516 0
1516 -106 -146 0
106 146 1516 0
-142 102 -1517 0
-102 142 -1517 0
1517 -102 -142 0
102 142 1517 0
103 -143 -1518 0
143 -103 -1518 0
1518 -103 -143 0
103 143 1518 0
104 -144 -1519 0
144 -104 -1519 0
1519 -104 -144 0
104 144 1519 0
105 -145 -1520 0
145 -105 -1520 0
1520 -105 -145 0
105 145 1520 0
-1516 -1517 -1518 -1519 -1520 0
106 -156 -1521 0
156 -106 -1521 0
1521 -106 -156 0
106 156 1521 0
-152 102 -1522 0
-102 152 -1522 0
1522 -102 -152 0
102 152 1522 0
103 -153 -1523 0
153 -103 -1523 0
1523 -103 -153 0
103 153 1523 0
104 -154 -1524 0
154 -104 -1524 0
1524 -104 -154 0
104 154 1524 0
105 -155 -1525 0
155 -105 -1525 0
1525 -105 -155 0
105 155 1525 0
-1521 -1522 -1523 -1524 -1525 0
106 -166 -1526 0
166 -106 -1526 0
1526 -106 -166 0
106 166 1526 0
-162 102 -1527 0
-102 162 -1527 0
1527 -102 -162 0
102 162 1527 0
103 -163 -1528 0
163 -103 -1528 0
1528 -103 -163 0
103 163 1528 0
104 -164 -1529 0
164 -104 -1529 0
1529 -104 -164 0
104 164 1529 0
105 -165 -1530 0
165 -105 -1530 0
1530 -105 -165 0
105 165 1530 0
-1526 -1527 -1528 -1529 -1530 0
106 -176 -1531 0
176 -106 -1531 0
1531 -106 -176 0
106 176 1531 0
-172 102 -1532 0
-102 172 -1532 0
1532 -102 -172 0
102 172 1532 0
103 -173 -1533 0
173 -103 -1533 0
1533 -103 -173 0
103 173 1533 0
104 -174 -1534 0
174 -104 -1534 0
1534 -104 -174 0
104 174 1534 0
105 -175 -1535 0
175 -105 -1535 0
1535 -105 -175 0
105 175 1535 0
-1531 -1532 -1533 -1534 -1535 0
106 -186 -1536 0
186 -106 -1536 0
1536 -106 -186 0
106 186 1536 0
-182 102 -1537 0
-102 182 -1537 0
1537 -102 -182 0
102 182 1537 0
103 -183 -1538 0
183 -103 -1538 0
1538 -103 -183 0
103 183 1538 0
104 -184 -1539 0
184 -104 -1539 0
1539 -104 -184 0
104 184 1539 0
105 -185 -1540 0
185 -105 -1540 0
1540 -105 -185 0
105 185 1540 0
-1536 -1537 -1538 -1539 -1540 0
106 -196 -1541 0
196 -106 -1541 0
1541 -106 -196 0
106 196 1541 0
-192 102 -1542 0
-102 192 -1542 0
1542 -102 -192 0
102 192 1542 0
103 -193 -1543 0
193 -103 -1543 0
1543 -103 -193 0
103 193 1543 0
104 -194 -1544 0
194 -104 -1544 0
1544 -104 -194 0
104 194 1544 0
105 -195 -1545 0
195 -105 -1545 0
1545 -105 -195 0
105 195 1545 0
-1541 -1542 -1543 -1544 -1545 0
106 -206 -1546 0
206 -106 -1546 0
1546 -106 -206 0
106 206 1546 0
-202 102 -1547 0
-102 202 -1547 0
1547 -102 -202 0
102 202 1547 0
103 -203 -1548 0
203 -103 -1548 0
1548 -103 -203 0
103 203 1548 0
104 -204 -1549 0
204 -104 -1549 0
1549 -104 -204 0
104 204 1549 0
105 -205 -1550 0
205 -105 -1550 0
1550 -105 -205 0
105 205 1550 0
-1546 -1547 -1548 -1549 -1550 0
106 -216 -1551 0
216 -106 -1551 0
1551 -106 -216 0
106 216 1551 0
-212 102 -1552 0
-102 212 -1552 0
1552 -102 -212 0
102 212 1552 0
103 -213 -1553 0
213 -103 -1553 0
1553 -103 -213 0
103 213 1553 0
104 -214 -1554 0
214 -104 -1554 0
1554 -104 -214 0
104 214 1554 0
105 -215 -1555 0
215 -105 -1555 0
1555 -105 -215 0
105 215 1555 0
-1551 -1552 -1553 -1554 -1555 0
106 -226 -1556 0
226 -106 -1556 0
1556 -106 -226 0
106 226 1556 0
-222 102 -1557 0
-102 222 -1557 0
1557 -102 -222 0
102 222 1557 0
103 -223 -1558 0
223 -103 -1558 0
1558 -103 -223 0
103 223 1558 0
104 -224 -1559 0
224 -104 -1559 0
1559 -104 -224 0
104 224 1559 0
105 -225 -1560 0
225 -105 -1560 0
1560 -105 -225 0
105 225 1560 0
-1556 -1557 -1558 -1559 -1560 0
106 -236 -1561 0
236 -106 -1561 0
1561 -106 -236 0
106 236 1561 0
-232 102 -1562 0
-102 232 -1562 0
1562 -102 -232 0
102 232 1562 0
103 -233 -1563 0
233 -103 -1563 0
1563 -103 -233 0
103 233 1563 0
104 -234 -1564 0
234 -104 -1564 0
1564 -104 -234 0
104 234 1564 0
105 -235 -1565 0
235 -105 -1565 0
1565 -105 -235 0
105 235 1565 0
-1561 -1562 -1563 -1564 -1565 0
106 -246 -1566 0
246 -106 -1566 0
1566 -106 -246 0
106 246 1566 0
-242 102 -1567 0
-102 242 -1567 0
1567 -102 -242 0
102 242 1567 0
103 -243 -1568 0
243 -103 -1568 0
1568 -103 -243 0
103 243 1568 0
104 -244 -1569 0
244 -104 -1569 0
1569 -104 -244 0
104 244 1569 0
105 -245 -1570 0
245 -105 -1570 0
1570 -105 -245 0
105 245 1570 0
-1566 -1567 -1568 -1569 -1570 0
116 -6 -1571 0
6 -116 -1571 0
-6 -116 1571 0
6 116 1571 0
112 -5 -1572 0
-112 5 -1572 0
-112 -5 1572 0
5 112 1572 0
113 -4 -1573 0
4 -113 -1573 0
-4 -113 1573 0
4 113 1573 0
114 -3 -1574 0
3 -114 -1574 0
-3 -114 1574 0
3 114 1574 0
115 -2 -1575 0
2 -115 -1575 0
-2 -115 1575 0
2 115 1575 0
-1571 -1572 -1573 -1574 -1575 0
116 -16 -1576 0
16 -116 -1576 0
-16 -116 1576 0
16 116 1576 0
-12 112 -1577 0
-112 12 -1577 0
-12 -112 1577 0
12 112 1577 0
113 -13 -1578 0
13 -113 -1578 0
-13 -113 1578 0
13 113 1578 0
114 -14 -1579 0
14 -114 -1579 0
-14 -114 1579 0
14 114 1579 0
115 -15 -1580 0
15 -115 -1580 0
-15 -115 1580 0
15 115 1580 0
-1576 -1577 -1578 -1579 -1580 0
116 -26 -1581 0
26 -116 -1581 0
-26 -116 1581 0
26 116 1581 0
-22 112 -1582 0
-112 22 -1582 0
-22 -112 1582 0
22 112 1582 0
113 -23 -1583 0
23 -113 -1583 0
-23 -113 1583 0
23 113 1583 0
114 -24 -1584 0
24 -114 -1584 0
-24 -114 1584 0
24 114 1584 0
115 -25 -1585 0
25 -115 -1585 0
-25 -115 1585 0
25 115 1585 0
-1581 -1582 -1583 -1584 -1585 0
116 -36 -1586 0
36 -116 -1586 0
-36 -116 1586 0
36 116 1586 0
-32 112 -1587 0
-112 32 -1587 0
-32 -112 1587 0
32 112 1587 0
113 -33 -1588 0
33 -113 -1588 0
-33 -113 1588 0
33 113 1588 0
114 -34 -1589 0
34 -114 -1589 0
-34 -114 1589 0
34 114 1589 0
115 -35 -1590 0
35 -115 -1590 0
-35 -115 1590 0
35 115 1590 0
-1586 -1587 -1588 -1589 -1590 0
116 -46 -1591 0
46 -116 -1591 0
-46 -116 1591 0
46 116 1591 0
-42 112 -1592 0
-112 42 -1592 0
-42 -112 1592 0
42 112 1592 0
113 -43 -1593 0
43 -113 -1593 0
-43 -113 1593 0
43 113 1593 0
114 -44 -1594 0
44 -114 -1594 0
-44 -114 1594 0
44 114 1594 0
115 -45 -1595 0
45 -115 -1595 0
-45 -115 1595 0
45 115 1595 0
-1591 -1592 -1593 -1594 -1595 0
116 -56 -1596 0
56 -116 -1596 0
-56 -116 1596 0
56 116 1596 0
-52 112 -1597 0
-112 52 -1597 0
-52 -112 1597 0
52 112 1597 0
113 -53 -1598 0
53 -113 -1598 0
-53 -113 1598 0
53 113 1598 0
114 -54 -1599 0
54 -114 -1599 0
-54 -114 1599 0
54 114 1599 0
115 -55 -1600 0
55 -115 -1600 0
-55 -115 1600 0
55 115 1600 0
-1596 -1597 -1598 -1599 -1600 0
116 -66 -1601 0
66 -116 -1601 0
-66 -116 1601 0
66 116 1601 0
-62 112 -1602 0
-112 62 -1602 0
-62 -112 1602 0
62 112 1602 0
113 -63 -1603 0
63 -113 -1603 0
-63 -113 1603 0
63 113 1603 0
114 -64 -1604 0
64 -114 -1604 0
-64 -114 1604 0
64 114 1604 0
115 -65 -1605 0
65 -115 -1605 0
-65 -115 1605 0
65 115 1605 0
-1601 -1602 -1603 -1604 -1605 0
116 -76 -1606 0
76 -116 -1606 0
-76 -116 1606 0
76 116 1606 0
-72 112 -1607 0
-112 72 -1607 0
-72 -112 1607 0
72 112 1607 0
113 -73 -1608 0
73 -113 -1608 0
-73 -113 1608 0
73 113 1608 0
114 -74 -1609 0
74 -114 -1609 0
-74 -114 1609 0
74 114 1609 0
115 -75 -1610 0
75 -115 -1610 0
-75 -115 1610 0
75 115 1610 0
-1606 -1607 -1608 -1609 -1610 0
116 -86 -1611 0
86 -116 -1611 0
-86 -116 1611 0
86 116 1611 0
-82 112 -1612 0
-112 82 -1612 0
-82 -112 1612 0
82 112 1612 0
113 -83 -1613 0
83 -113 -1613 0
-83 -113 1613 0
83 113 1613 0
114 -84 -1614 0
84 -114 -1614 0
-84 -114 1614 0
84 114 1614 0
115 -85 -1615 0
85 -115 -1615 0
-85 -115 1615 0
85 115 1615 0
-1611 -1612 -1613 -1614 -1615 0
116 -96 -1616 0
96 -116 -1616 0
-96 -116 1616 0
96 116 1616 0
-92 112 -1617 0
-112 92 -1617 0
-92 -112 1617 0
92 112 1617 0
113 -93 -1618 0
93 -113 -1618 0
-93 -113 1618 0
93 113 1618 0
114 -94 -1619 0
94 -114 -1619 0
-94 -114 1619 0
94 114 1619 0
115 -95 -1620 0
95 -115 -1620 0
-95 -115 1620 0
95 115 1620 0
-1616 -1617 -1618 -1619 -1620 0
116 -106 -1621 0
106 -116 -1621 0
-106 -116 1621 0
106 116 1621 0
-102 112 -1622 0
-112 102 -1622 0
-102 -112 1622 0
102 112 1622 0
113 -103 -1623 0
103 -113 -1623 0
-103 -113 1623 0
103 113 1623 0
114 -104 -1624 0
104 -114 -1624 0
-104 -114 1624 0
104 114 1624 0
115 -105 -1625 0
105 -115 -1625 0
-105 -115 1625 0
105 115 1625 0
-1621 -1622 -1623 -1624 -1625 0
116 -126 -1626 0
126 -116 -1626 0
1626 -116 -126 0
116 126 1626 0
-122 112 -1627 0
-112 122 -1627 0
1627 -112 -122 0
112 122 1627 0
113 -123 -1628 0
123 -113 -1628 0
1628 -113 -123 0
113 123 1628 0
114 -124 -1629 0
124 -114 -1629 0
1629 -114 -124 0
114 124 1629 0
115 -125 -1630 0
125 -115 -1630 0
1630 -115 -125 0
115 125 1630 0
-1626 -1627 -1628 -1629 -1630 0
116 -136 -1631 0
136 -116 -1631 0
1631 -116 -136 0
116 136 1631 0
-132 112 -1632 0
-112 132 -1632 0
1632 -112 -132 0
112 132 1632 0
113 -133 -1633 0
133 -113 -1633 0
1633 -113 -133 0
113 133 1633 0
114 -134 -1634 0
134 -114 -1634 0
1634 -114 -134 0
114 134 1634 0
115 -135 -1635 0
135 -115 -1635 0
1635 -115 -135 0
115 135 1635 0
-1631 -1632 -1633 -1634 -1635 0
116 -146 -1636 0
146 -116 -1636 0
1636 -116 -146 0
116 146 1636 0
-142 112 -1637 0
-112 142 -1637 0
1637 -112 -142 0
112 142 1637 0
113 -143 -1638 0
143 -113 -1638 0
1638 -113 -143 0
113 143 1638 0
114 -144 -1639 0
144 -114 -1639 0
1639 -114 -144 0
114 144 1639 0
115 -145 -1640 0
145 -115 -1640 0
1640 -115 -145 0
115 145 1640 0
-1636 -1637 -1638 -1639 -1640 0
116 -156 -1641 0
156 -116 -1641 0
1641 -116 -156 0
116 156 1641 0
-152 112 -1642 0
-112 152 -1642 0
1642 -112 -152 0
112 152 1642 0
113 -153 -1643 0
153 -113 -1643 0
1643 -113 -153 0
113 153 1643 0
114 -154 -1644 0
154 -114 -1644 0
1644 -114 -154 0
114 154 1644 0
115 -155 -1645 0
155 -115 -1645 0
1645 -115 -155 0
115 155 1645 0
-1641 -1642 -1643 -1644 -1645 0
116 -166 -1646 0
166 -116 -1646 0
1646 -116 -166 0
116 166 1646 0
-162 112 -1647 0
-112 162 -1647 0
1647 -112 -162 0
112 162 1647 0
113 -163 -1648 0
163 -113 -1648 0
1648 -113 -163 0
113 163 1648 0
114 -164 -1649 0
164 -114 -1649 0
1649 -114 -164 0
114 164 1649 0
115 -165 -1650 0
165 -115 -1650 0
1650 -115 -165 0
115 165 1650 0
-1646 -1647 -1648 -1649 -1650 0
116 -176 -1651 0
176 -116 -1651 0
1651 -116 -176 0
116 176 1651 0
-172 112 -1652 0
-112 172 -1652 0
1652 -112 -172 0
112 172 1652 0
113 -173 -1653 0
173 -113 -1653 0
1653 -113 -173 0
113 173 1653 0
114 -174 -1654 0
174 -114 -1654 0
1654 -114 -174 0
114 174 1654 0
115 -175 -1655 0
175 -115 -1655 0
1655 -115 -175 0
115 175 1655 0
-1651 -1652 -1653 -1654 -1655 0
116 -186 -1656 0
186 -116 -1656 0
1656 -116 -186 0
116 186 1656 0
-182 112 -1657 0
-112 182 -1657 0
1657 -112 -182 0
112 182 1657 0
113 -183 -1658 0
183 -113 -1658 0
1658 -113 -183 0
113 183 1658 0
114 -184 -1659 0
184 -114 -1659 0
1659 -114 -184 0
114 184 1659 0
115 -185 -1660 0
185 -115 -1660 0
1660 -115 -185 0
115 185 1660 0
-1656 -1657 -1658 -1659 -1660 0
116 -196 -1661 0
196 -116 -1661 0
1661 -116 -196 0
116 196 1661 0
-192 112 -1662 0
-112 192 -1662 0
1662 -112 -192 0
112 192 1662 0
113 -193 -1663 0
193 -113 -1663 0
1663 -113 -193 0
113 193 1663 0
114 -194 -1664 0
194 -114 -1664 0
1664 -114 -194 0
114 194 1664 0
115 -195 -1665 0
195 -115 -1665 0
1665 -115 -195 0
115 195 1665 0
-1661 -1662 -1663 -1664 -1665 0
116 -206 -1666 0
206 -116 -1666 0
1666 -116 -206 0
116 206 1666 0
-202 112 -1667 0
-112 202 -1667 0
1667 -112 -202 0
112 202 1667 0
113 -203 -1668 0
203 -113 -1668 0
1668 -113 -203 0
113 203 1668 0
114 -204 -1669 0
204 -114 -1669 0
1669 -114 -204 0
114 204 1669 0
115 -205 -1670 0
205 -115 -1670 0
1670 -115 -205 0
115 205 1670 0
-1666 -1667 -1668 -1669 -1670 0
116 -216 -1671 0
216 -116 -1671 0
1671 -116 -216 0
116 216 1671 0
-212 112 -1672 0
-112 212 -1672 0
1672 -112 -212 0
112 212 1672 0
113 -213 -1673 0
213 -113 -1673 0
1673 -113 -213 0
113 213 1673 0
114 -214 -1674 0
214 -114 -1674 0
1674 -114 -214 0
114 214 1674 0
115 -215 -1675 0
215 -115 -1675 0
1675 -115 -215 0
115 215 1675 0
-1671 -1672 -1673 -1674 -1675 0
116 -226 -1676 0
226 -116 -1676 0
1676 -116 -226 0
116 226 1676 0
-222 112 -1677 0
-112 222 -1677 0
1677 -112 -222 0
112 222 1677 0
113 -223 -1678 0
223 -113 -1678 0
1678 -113 -223 0
113 223 1678 0
114 -224 -1679 0
224 -114 -1679 0
1679 -114 -224 0
114 224 1679 0
115 -225 -1680 0
225 -115 -1680 0
1680 -115 -225 0
115 225 1680 0
-1676 -1677 -1678 -1679 -1680 0
116 -236 -1681 0
236 -116 -1681 0
1681 -116 -236 0
116 236 1681 0
-232 112 -1682 0
-112 232 -1682 0
1682 -112 -232 0
112 232 1682 0
113 -233 -1683 0
233 -113 -1683 0
1683 -113 -233 0
113 233 1683 0
114 -234 -1684 0
234 -114 -1684 0
1684 -114 -234 0
114 234 1684 0
115 -235 -1685 0
235 -115 -1685 0
1685 -115 -235 0
115 235 1685 0
-1681 -1682 -1683 -1684 -1685 0
116 -246 -1686 0
246 -116 -1686 0
1686 -116 -246 0
116 246 1686 0
-242 112 -1687 0
-112 242 -1687 0
1687 -112 -242 0
112 242 1687 0
113 -243 -1688 0
243 -113 -1688 0
1688 -113 -243 0
113 243 1688 0
114 -244 -1689 0
244 -114 -1689 0
1689 -114 -244 0
114 244 1689 0
115 -245 -1690 0
245 -115 -1690 0
1690 -115 -245 0
115 245 1690 0
-1686 -1687 -1688 -1689 -1690 0
126 -6 -1691 0
6 -126 -1691 0
-6 -126 1691 0
6 126 1691 0
122 -5 -1692 0
-122 5 -1692 0
-122 -5 1692 0
5 122 1692 0
123 -4 -1693 0
4 -123 -1693 0
-4 -123 1693 0
4 123 1693 0
124 -3 -1694 0
3 -124 -1694 0
-3 -124 1694 0
3 124 1694 0
125 -2 -1695 0
2 -125 -1695 0
-2 -125 1695 0
2 125 1695 0
-1691 -1692 -1693 -1694 -1695 0
126 -16 -1696 0
16 -126 -1696 0
-16 -126 1696 0
16 126 1696 0
-12 122 -1697 0
-122 12 -1697 0
-12 -122 1697 0
12 122 1697 0
123 -13 -1698 0
13 -123 -1698 0
-13 -123 1698 0
13 123 1698 0
124 -14 -1699 0
14 -124 -1699 0
-14 -124 1699 0
14 124 1699 0
125 -15 -1700 0
15 -125 -1700 0
-15 -125 1700 0
15 125 1700 0
-1696 -1697 -1698 -1699 -1700 0
126 -26 -1701 0
26 -126 -1701 0
-26 -126 1701 0
26 126 1701 0
-22 122 -1702 0
-122 22 -1702 0
-22 -122 1702 0
22 122 1702 0
123 -23 -1703 0
23 -123 -1703 0
-23 -123 1703 0
23 123 1703 0
124 -24 -1704 0
24 -124 -1704 0
-24 -124 1704 0
24 124 1704 0
125 -25 -1705 0
25 -125 -1705 0
-25 -125 1705 0
25 125 1705 0
-1701 -1702 -1703 -1704 -1705 0
126 -36 -1706 0
36 -126 -1706 0
-36 -126 1706 0
36 126 1706 0
-32 122 -1707 0
-122 32 -1707 0
-32 -122 1707 0
32 122 1707 0
123 -33 -1708 0
33 -123 -1708 0
-33 -123 1708 0
33 123 1708 0
124 -34 -1709 0
34 -124 -1709 0
-34 -124 1709 0
34 124 1709 0
125 -35 -1710 0
35 -125 -1710 0
-35 -125 1710 0
35 125 1710 0
-1706 -1707 -1708 -1709 -1710 0
126 -46 -1711 0
46 -126 -1711 0
-46 -126 1711 0
46 126 1711 0
-42 122 -1712 0
-122 42 -1712 0
-42 -122 1712 0
42 122 1712 0
123 -43 -1713 0
43 -123 -1713 0
-43 -123 1713 0
43 123 1713 0
124 -44 -1714 0
44 -124 -1714 0
-44 -124 1714 0
44 124 1714 0
125 -45 -1715 0
45 -125 -1715 0
-45 -125 1715 0
45 125 1715 0
-1711 -1712 -1713 -1714 -1715 0
126 -56 -1716 0
56 -126 -1716 0
-56 -126 1716 0
56 126 1716 0
-52 122 -1717 0
-122 52 -1717 0
-52 -122 1717 0
52 122 1717 0
123 -53 -1718 0
53 -123 -1718 0
-53 -123 1718 0
53 123 1718 0
124 -54 -1719 0
54 -124 -1719 0
-54 -124 1719 0
54 124 1719 0
125 -55 -1720 0
55 -125 -1720 0
-55 -125 1720 0
55 125 1720 0
-1716 -1717 -1718 -1719 -1720 0
126 -66 -1721 0
66 -126 -1721 0
-66 -126 1721 0
66 126 1721 0
-62 122 -1722 0
-122 62 -1722 0
-62 -122 1722 0
62 122 1722 0
123 -63 -1723 0
63 -123 -1723 0
-63 -123 1723 0
63 123 1723 0
124 -64 -1724 0
64 -124 -1724 0
-64 -124 1724 0
64 124 1724 0
125 -65 -1725 0
65 -125 -1725 0
-65 -125 1725 0
65 125 1725 0
-1721 -1722 -1723 -1724 -1725 0
126 -76 -1726 0
76 -126 -1726 0
-76 -126 1726 0
76 126 1726 0
-72 122 -1727 0
-122 72 -1727 0
-72 -122 1727 0
72 122 1727 0
123 -73 -1728 0
73 -123 -1728 0
-73 -123 1728 0
73 123 1728 0
124 -74 -1729 0
74 -124 -1729 0
-74 -124 1729 0
74 124 1729 0
125 -75 -1730 0
75 -125 -1730 0
-75 -125 1730 0
75 125 1730 0
-1726 -1727 -1728 -1729 -1730 0
126 -86 -1731 0
86 -126 -1731 0
-86 -126 1731 0
86 126 1731 0
-82 122 -1732 0
-122 82 -1732 0
-82 -122 1732 0
82 122 1732 0
123 -83 -1733 0
83 -123 -1733 0
-83 -123 1733 0
83 123 1733 0
124 -84 -1734 0
84 -124 -1734 0
-84 -124 1734 0
84 124 1734 0
125 -85 -1735 0
85 -125 -1735 0
-85 -125 1735 0
85 125 1735 0
-1731 -1732 -1733 -1734 -1735 0
126 -96 -1736 0
96 -126 -1736 0
-96 -126 1736 0
96 126 1736 0
-92 122 -1737 0
-122 92 -1737 0
-92 -122 1737 0
92 122 1737 0
123 -93 -1738 0
93 -123 -1738 0
-93 -123 1738 0
93 123 1738 0
124 -94 -1739 0
94 -124 -1739 0
-94 -124 1739 0
94 124 1739 0
125 -95 -1740 0
95 -125 -1740 0
-95 -125 1740 0
95 125 1740 0
-1736 -1737 -1738 -1739 -1740 0
126 -106 -1741 0
106 -126 -1741 0
-106 -126 1741 0
106 126 1741 0
-102 122 -1742 0
-122 102 -1742 0
-102 -122 1742 0
102 122 1742 0
123 -103 -1743 0
103 -123 -1743 0
-103 -123 1743 0
103 123 1743 0
124 -104 -1744 0
104 -124 -1744 0
-104 -124 1744 0
104 124 1744 0
125 -105 -1745 0
105 -125 -1745 0
-105 -125 1745 0
105 125 1745 0
-1741 -1742 -1743 -1744 -1745 0
126 -116 -1746 0
116 -126 -1746 0
-116 -126 1746 0
116 126 1746 0
-112 122 -1747 0
-122 112 -1747 0
-112 -122 1747 0
112 122 1747 0
123 -113 -1748 0
113 -123 -1748 0
-113 -123 1748 0
113 123 1748 0
124 -114 -1749 0
114 -124 -1749 0
-114 -124 1749 0
114 124 1749 0
125 -115 -1750 0
115 -125 -1750 0
-115 -125 1750 0
115 125 1750 0
-1746 -1747 -1748 -1749 -1750 0
126 -136 -1751 0
136 -126 -1751 0
1751 -126 -136 0
126 136 1751 0
-132 122 -1752 0
-122 132 -1752 0
1752 -122 -132 0
122 132 1752 0
123 -133 -1753 0
133 -123 -1753 0
1753 -123 -133 0
123 133 1753 0
124 -134 -1754 0
134 -124 -1754 0
1754 -124 -134 0
124 134 1754 0
125 -135 -1755 0
135 -125 -1755 0
1755 -125 -135 0
125 135 1755 0
-1751 -1752 -1753 -1754 -1755 0
126 -146 -1756 0
146 -126 -1756 0
1756 -126 -146 0
126 146 1756 0
-142 122 -1757 0
-122 142 -1757 0
1757 -122 -142 0
122 142 1757 0
123 -143 -1758 0
143 -123 -1758 0
1758 -123 -143 0
123 143 1758 0
124 -144 -1759 0
144 -124 -1759 0
1759 -124 -144 0
124 144 1759 0
125 -145 -1760 0
145 -125 -1760 0
1760 -125 -145 0
125 145 1760 0
-1756 -1757 -1758 -1759 -1760 0
126 -156 -1761 0
156 -126 -1761 0
1761 -126 -156 0
126 156 1761 0
-152 122 -1762 0
-122 152 -1762 0
1762 -122 -152 0
122 152 1762 0
123 -153 -1763 0
153 -123 -1763 0
1763 -123 -153 0
123 153 1763 0
124 -154 -1764 0
154 -124 -1764 0
1764 -124 -154 0
124 154 1764 0
125 -155 -1765 0
155 -125 -1765 0
1765 -125 -155 0
125 155 1765 0
-1761 -1762 -1763 -1764 -1765 0
126 -166 -1766 0
166 -126 -1766 0
1766 -126 -166 0
126 166 1766 0
-162 122 -1767 0
-122 162 -1767 0
1767 -122 -162 0
122 162 1767 0
123 -163 -1768 0
163 -123 -1768 0
1768 -123 -163 0
123 163 1768 0
124 -164 -1769 0
164 -124 -1769 0
1769 -124 -164 0
124 164 1769 0
125 -165 -1770 0
165 -125 -1770 0
1770 -125 -165 0
125 165 1770 0
-1766 -1767 -1768 -1769 -1770 0
126 -176 -1771 0
176 -126 -1771 0
1771 -126 -176 0
126 176 1771 0
-172 122 -1772 0
-122 172 -1772 0
1772 -122 -172 0
122 172 1772 0
123 -173 -1773 0
173 -123 -1773 0
1773 -123 -173 0
123 173 1773 0
124 -174 -1774 0
174 -124 -1774 0
1774 -124 -174 0
124 174 1774 0
125 -175 -1775 0
175 -125 -1775 0
1775 -125 -175 0
125 175 1775 0
-1771 -1772 -1773 -1774 -1775 0
126 -186 -1776 0
186 -126 -1776 0
1776 -126 -186 0
126 186 1776 0
-182 122 -1777 0
-122 182 -1777 0
1777 -122 -182 0
122 182 1777 0
123 -183 -1778 0
183 -123 -1778 0
1778 -123 -183 0
123 183 1778 0
124 -184 -1779 0
184 -124 -1779 0
1779 -124 -184 0
124 184 1779 0
125 -185 -1780 0
185 -125 -1780 0
1780 -125 -185 0
125 185 1780 0
-1776 -1777 -1778 -1779 -1780 0
126 -196 -1781 0
196 -126 -1781 0
1781 -126 -196 0
126 196 1781 0
-192 122 -1782 0
-122 192 -1782 0
1782 -122 -192 0
122 192 1782 0
123 -193 -1783 0
193 -123 -1783 0
1783 -123 -193 0
123 193 1783 0
124 -194 -1784 0
194 -124 -1784 0
1784 -124 -194 0
124 194 1784 0
125 -195 -1785 0
195 -125 -1785 0
1785 -125 -195 0
125 195 1785 0
-1781 -1782 -1783 -1784 -1785 0
126 -206 -1786 0
206 -126 -1786 0
1786 -126 -206 0
126 206 1786 0
-202 122 -1787 0
-122 202 -1787 0
1787 -122 -202 0
122 202 1787 0
123 -203 -1788 0
203 -123 -1788 0
1788 -123 -203 0
123 203 1788 0
124 -204 -1789 0
204 -124 -1789 0
1789 -124 -204 0
124 204 1789 0
125 -205 -1790 0
205 -125 -1790 0
1790 -125 -205 0
125 205 1790 0
-1786 -1787 -1788 -1789 -1790 0
126 -216 -1791 0
216 -126 -1791 0
1791 -126 -216 0
126 216 1791 0
-212 122 -1792 0
-122 212 -1792 0
1792 -122 -212 0
122 212 1792 0
123 -213 -1793 0
213 -123 -1793 0
1793 -123 -213 0
123 213 1793 0
124 -214 -1794 0
214 -124 -1794 0
1794 -124 -214 0
124 214 1794 0
125 -215 -1795 0
215 -125 -1795 0
1795 -125 -215 0
125 215 1795 0
-1791 -1792 -1793 -1794 -1795 0
126 -226 -1796 0
226 -126 -1796 0
1796 -126 -226 0
126 226 1796 0
-222 122 -1797 0
-122 222 -1797 0
1797 -122 -222 0
122 222 1797 0
123 -223 -1798 0
223 -123 -1798 0
1798 -123 -223 0
123 223 1798 0
124 -224 -1799 0
224 -124 -1799 0
1799 -124 -224 0
124 224 1799 0
125 -225 -1800 0
225 -125 -1800 0
1800 -125 -225 0
125 225 1800 0
-1796 -1797 -1798 -1799 -1800 0
126 -236 -1801 0
236 -126 -1801 0
1801 -126 -236 0
126 236 1801 0
-232 122 -1802 0
-122 232 -1802 0
1802 -122 -232 0
122 232 1802 0
123 -233 -1803 0
233 -123 -1803 0
1803 -123 -233 0
123 233 1803 0
124 -234 -1804 0
234 -124 -1804 0
1804 -124 -234 0
124 234 1804 0
125 -235 -1805 0
235 -125 -1805 0
1805 -125 -235 0
125 235 1805 0
-1801 -1802 -1803 -1804 -1805 0
126 -246 -1806 0
246 -126 -1806 0
1806 -126 -246 0
126 246 1806 0
-242 122 -1807 0
-122 242 -1807 0
1807 -122 -242 0
122 242 1807 0
123 -243 -1808 0
243 -123 -1808 0
1808 -123 -243 0
123 243 1808 0
124 -244 -1809 0
244 -124 -1809 0
1809 -124 -244 0
124 244 1809 0
125 -245 -1810 0
245 -125 -1810 0
1810 -125 -245 0
125 245 1810 0
-1806 -1807 -1808 -1809 -1810 0
136 -6 -1811 0
6 -136 -1811 0
-6 -136 1811 0
6 136 1811 0
132 -5 -1812 0
-132 5 -1812 0
-132 -5 1812 0
5 132 1812 0
133 -4 -1813 0
4 -133 -1813 0
-4 -133 1813 0
4 133 1813 0
134 -3 -1814 0
3 -134 -1814 0
-3 -134 1814 0
3 134 1814 0
135 -2 -1815 0
2 -135 -1815 0
-2 -135 1815 0
2 135 1815 0
-1811 -1812 -1813 -1814 -1815 0
136 -16 -1816 0
16 -136 -1816 0
-16 -136 1816 0
16 136 1816 0
-12 132 -1817 0
-132 12 -1817 0
-12 -132 1817 0
12 132 1817 0
133 -13 -1818 0
13 -133 -1818 0
-13 -133 1818 0
13 133 1818 0
134 -14 -1819 0
14 -134 -1819 0
-14 -134 1819 0
14 134 1819 0
135 -15 -1820 0
15 -135 -1820 0
-15 -135 1820 0
15 135 1820 0
-1816 -1817 -1818 -1819 -1820 0
136 -26 -1821 0
26 -136 -1821 0
-26 -136 1821 0
26 136 1821 0
-22 132 -1822 0
-132 22 -1822 0
-22 -132 1822 0
22 132 1822 0
133 -23 -1823 0
23 -133 -1823 0
-23 -133 1823 0
23 133 1823 0
134 -24 -1824 0
24 -134 -1824 0
-24 -134 1824 0
24 134 1824 0
135 -25 -1825 0
25 -135 -1825 0
-25 -135 1825 0
25 135 1825 0
-1821 -1822 -1823 -1824 -1825 0
136 -36 -1826 0
36 -136 -1826 0
-36 -136 1826 0
36 136 1826 0
-32 132 -1827 0
-132 32 -1827 0
-32 -132 1827 0
32 132 1827 0
133 -33 -1828 0
33 -133 -1828 0
-33 -133 1828 0
33 133 1828 0
134 -34 -1829 0
34 -134 -1829 0
-34 -134 1829 0
34 134 1829 0
135 -35 -1830 0
35 -135 -1830 0
-35 -135 1830 0
35 135 1830 0
-1826 -1827 -1828 -1829 -1830 0
136 -46 -1831 0
46 -136 -1831 0
-46 -136 1831 0
46 136 1831 0
-42 132 -1832 0
-132 42 -1832 0
-42 -132 1832 0
42 132 1832 0
133 -43 -1833 0
43 -133 -1833 0
-43 -133 1833 0
43 133 1833 0
134 -44 -1834 0
44 -134 -1834 0
-44 -134 1834 0
44 134 1834 0
135 -45 -1835 0
45 -135 -1835 0
-45 -135 1835 0
45 135 1835 0
-1831 -1832 -1833 -1834 -1835 0
136 -56 -1836 0
56 -136 -1836 0
-56 -136 1836 0
56 136 1836 0
-52 132 -1837 0
-132 52 -1837 0
-52 -132 1837 0
52 132 1837 0
133 -53 -1838 0
53 -133 -1838 0
-53 -133 1838 0
53 133 1838 0
134 -54 -1839 0
54 -134 -1839 0
-54 -134 1839 0
54 134 1839 0
135 -55 -1840 0
55 -135 -1840 0
-55 -135 1840 0
55 135 1840 0
-1836 -1837 -1838 -1839 -1840 0
136 -66 -1841 0
66 -136 -1841 0
-66 -136 1841 0
66 136 1841 0
-62 132 -1842 0
-132 62 -1842 0
-62 -132 1842 0
62 132 1842 0
133 -63 -1843 0
63 -133 -1843 0
-63 -133 1843 0
63 133 1843 0
134 -64 -1844 0
64 -134 -1844 0
-64 -134 1844 0
64 134 1844 0
135 -65 -1845 0
65 -135 -1845 0
-65 -135 1845 0
65 135 1845 0
-1841 -1842 -1843 -1844 -1845 0
136 -76 -1846 0
76 -136 -1846 0
-76 -136 1846 0
76 136 1846 0
-72 132 -1847 0
-132 72 -1847 0
-72 -132 1847 0
72 132 1847 0
133 -73 -1848 0
73 -133 -1848 0
-73 -133 1848 0
73 133 1848 0
134 -74 -1849 0
74 -134 -1849 0
-74 -134 1849 0
74 134 1849 0
135 -75 -1850 0
75 -135 -1850 0
-75 -135 1850 0
75 135 1850 0
-1846 -1847 -1848 -1849 -1850 0
136 -86 -1851 0
86 -136 -1851 0
-86 -136 1851 0
86 136 1851 0
-82 132 -1852 0
-132 82 -1852 0
-82 -132 1852 0
82 132 1852 0
133 -83 -1853 0
83 -133 -1853 0
-83 -133 1853 0
83 133 1853 0
134 -84 -1854 0
84 -134 -1854 0
-84 -134 1854 0
84 134 1854 0
135 -85 -1855 0
85 -135 -1855 0
-85 -135 1855 0
85 135 1855 0
-1851 -1852 -1853 -1854 -1855 0
136 -96 -1856 0
96 -136 -1856 0
-96 -136 1856 0
96 136 1856 0
-92 132 -1857 0
-132 92 -1857 0
-92 -132 1857 0
92 132 1857 0
133 -93 -1858 0
93 -133 -1858 0
-93 -133 1858 0
93 133 1858 0
134 -94 -1859 0
94 -134 -1859 0
-94 -134 1859 0
94 134 1859 0
135 -95 -1860 0
95 -135 -1860 0
-95 -135 1860 0
95 135 1860 0
-1856 -1857 -1858 -1859 -1860 0
136 -106 -1861 0
106 -136 -1861 0
-106 -136 1861 0
106 136 1861 0
-102 132 -1862 0
-132 102 -1862 0
-102 -132 1862 0
102 132 1862 0
133 -103 -1863 0
103 -133 -1863 0
-103 -133 1863 0
103 133 1863 0
134 -104 -1864 0
104 -134 -1864 0
-104 -134 1864 0
104 134 1864 0
135 -105 -1865 0
105 -135 -1865 0
-105 -135 1865 0
105 135 1865 0
-1861 -1862 -1863 -1864 -1865 0
136 -116 -1866 0
116 -136 -1866 0
-116 -136 1866 0
116 136 1866 0
-112 132 -1867 0
-132 112 -1867 0
-112 -132 1867 0
112 132 1867 0
133 -113 -1868 0
113 -133 -1868 0
-113 -133 1868 0
113 133 1868 0
134 -114 -1869 0
114 -134 -1869 0
-114 -134 1869 0
114 134 1869 0
135 -115 -1870 0
115 -135 -1870 0
-115 -135 1870 0
115 135 1870 0
-1866 -1867 -1868 -1869 -1870 0
136 -126 -1871 0
126 -136 -1871 0
-126 -136 1871 0
126 136 1871 0
-122 132 -1872 0
-132 122 -1872 0
-122 -132 1872 0
122 132 1872 0
133 -123 -1873 0
123 -133 -1873 0
-123 -133 1873 0
123 133 1873 0
134 -124 -1874 0
124 -134 -1874 0
-124 -134 1874 0
124 134 1874 0
135 -125 -1875 0
125 -135 -1875 0
-125 -135 1875 0
125 135 1875 0
-1871 -1872 -1873 -1874 -1875 0
136 -146 -1876 0
146 -136 -1876 0
1876 -136 -146 0
136 146 1876 0
-142 132 -1877 0
-132 142 -1877 0
1877 -132 -142 0
132 142 1877 0
133 -143 -1878 0
143 -133 -1878 0
1878 -133 -143 0
133 143 1878 0
134 -144 -1879 0
144 -134 -1879 0
1879 -134 -144 0
134 144 1879 0
135 -145 -1880 0
145 -135 -1880 0
1880 -135 -145 0
135 145 1880 0
-1876 -1877 -1878 -1879 -1880 0
136 -156 -1881 0
156 -136 -1881 0
1881 -136 -156 0
136 156 1881 0
-152 132 -1882 0
-132 152 -1882 0
1882 -132 -152 0
132 152 1882 0
133 -153 -1883 0
153 -133 -1883 0
1883 -133 -153 0
133 153 1883 0
134 -154 -1884 0
154 -134 -1884 0
1884 -134 -154 0
134 154 1884 0
135 -155 -1885 0
155 -135 -1885 0
1885 -135 -155 0
135 155 1885 0
-1881 -1882 -1883 -1884 -1885 0
136 -166 -1886 0
166 -136 -1886 0
1886 -136 -166 0
136 166 1886 0
-162 132 -1887 0
-132 162 -1887 0
1887 -132 -162 0
132 162 1887 0
133 -163 -1888 0
163 -133 -1888 0
1888 -133 -163 0
133 163 1888 0
134 -164 -1889 0
164 -134 -1889 0
1889 -134 -164 0
134 164 1889 0
135 -165 -1890 0
165 -135 -1890 0
1890 -135 -165 0
135 165 1890 0
-1886 -1887 -1888 -1889 -1890 0
136 -176 -1891 0
176 -136 -1891 0
1891 -136 -176 0
136 176 1891 0
-172 132 -1892 0
-132 172 -1892 0
1892 -132 -172 0
132 172 1892 0
133 -173 -1893 0
173 -133 -1893 0
1893 -133 -173 0
133 173 1893 0
134 -174 -1894 0
174 -134 -1894 0
1894 -134 -174 0
134 174 1894 0
135 -175 -1895 0
175 -135 -1895 0
1895 -135 -175 0
135 175 1895 0
-1891 -1892 -1893 -1894 -1895 0
136 -186 -1896 0
186 -136 -1896 0
1896 -136 -186 0
136 186 1896 0
-182 132 -1897 0
-132 182 -1897 0
1897 -132 -182 0
132 182 1897 0
133 -183 -1898 0
183 -133 -1898 0
1898 -133 -183 0
133 183 1898 0
134 -184 -1899 0
184 -134 -1899 0
1899 -134 -184 0
134 184 1899 0
135 -185 -1900 0
185 -135 -1900 0
1900 -135 -185 0
135 185 1900 0
-1896 -1897 -1898 -1899 -1900 0
136 -196 -1901 0
196 -136 -1901 0
1901 -136 -196 0
136 196 1901 0
-192 132 -1902 0
-132 192 -1902 0
1902 -132 -192 0
132 192 1902 0
133 -193 -1903 0
193 -133 -1903 0
1903 -133 -193 0
133 193 1903 0
134 -194 -1904 0
194 -134 -1904 0
1904 -134 -194 0
134 194 1904 0
135 -195 -1905 0
195 -135 -1905 0
1905 -135 -195 0
135 195 1905 0
-1901 -1902 -1903 -1904 -1905 0
136 -206 -1906 0
206 -136 -1906 0
1906 -136 -206 0
136 206 1906 0
-202 132 -1907 0
-132 202 -1907 0
1907 -132 -202 0
132 202 1907 0
133 -203 -1908 0
203 -133 -1908 0
1908 -133 -203 0
133 203 1908 0
134 -204 -1909 0
204 -134 -1909 0
1909 -134 -204 0
134 204 1909 0
135 -205 -1910 0
205 -135 -1910 0
1910 -135 -205 0
135 205 1910 0
-1906 -1907 -1908 -1909 -1910 0
136 -216 -1911 0
216 -136 -1911 0
1911 -136 -216 0
136 216 1911 0
-212 132 -1912 0
-132 212 -1912 0
1912 -132 -212 0
132 212 1912 0
133 -213 -1913 0
213 -133 -1913 0
1913 -133 -213 0
133 213 1913 0
134 -214 -1914 0
214 -134 -1914 0
1914 -134 -214 0
134 214 1914 0
135 -215 -1915 0
215 -135 -1915 0
1915 -135 -215 0
135 215 1915 0
-1911 -1912 -1913 -1914 -1915 0
136 -226 -1916 0
226 -136 -1916 0
1916 -136 -226 0
136 226 1916 0
-222 132 -1917 0
-132 222 -1917 0
1917 -132 -222 0
132 222 1917 0
133 -223 -1918 0
223 -133 -1918 0
1918 -133 -223 0
133 223 1918 0
134 -224 -1919 0
224 -134 -1919 0
1919 -134 -224 0
134 224 1919 0
135 -225 -1920 0
225 -135 -1920 0
1920 -135 -225 0
135 225 1920 0
-1916 -1917 -1918 -1919 -1920 0
136 -236 -1921 0
236 -136 -1921 0
1921 -136 -236 0
136 236 1921 0
-232 132 -1922 0
-132 232 -1922 0
1922 -132 -232 0
132 232 1922 0
133 -233 -1923 0
233 -133 -1923 0
1923 -133 -233 0
133 233 1923 0
134 -234 -1924 0
234 -134 -1924 0
1924 -134 -234 0
134 234 1924 0
135 -235 -1925 0
235 -135 -1925 0
1925 -135 -235 0
135 235 1925 0
-1921 -1922 -1923 -1924 -1925 0
136 -246 -1926 0
246 -136 -1926 0
1926 -136 -246 0
136 246 1926 0
-242 132 -1927 0
-132 242 -1927 0
1927 -132 -242 0
132 242 1927 0
133 -243 -1928 0
243 -133 -1928 0
1928 -133 -243 0
133 243 1928 0
134 -244 -1929 0
244 -134 -1929 0
1929 -134 -244 0
134 244 1929 0
135 -245 -1930 0
245 -135 -1930 0
1930 -135 -245 0
135 245 1930 0
-1926 -1927 -1928 -1929 -1930 0
146 -6 -1931 0
6 -146 -1931 0
-6 -146 1931 0
6 146 1931 0
142 -5 -1932 0
-142 5 -1932 0
-142 -5 1932 0
5 142 1932 0
143 -4 -1933 0
4 -143 -1933 0
-4 -143 1933 0
4 143 1933 0
144 -3 -1934 0
3 -144 -1934 0
-3 -144 1934 0
3 144 1934 0
145 -2 -1935 0
2 -145 -1935 0
-2 -145 1935 0
2 145 1935 0
-1931 -1932 -1933 -1934 -1935 0
146 -16 -1936 0
16 -146 -1936 0
-16 -146 1936 0
16 146 1936 0
-12 142 -1937 0
-142 12 -1937 0
-12 -142 1937 0
12 142 1937 0
143 -13 -1938 0
13 -143 -1938 0
-13 -143 1938 0
13 143 1938 0
144 -14 -1939 0
14 -144 -1939 0
-14 -144 1939 0
14 144 1939 0
145 -15 -1940 0
15 -145 -1940 0
-15 -145 1940 0
15 145 1940 0
-1936 -1937 -1938 -1939 -1940 0
146 -26 -1941 0
26 -146 -1941 0
-26 -146 1941 0
26 146 1941 0
-22 142 -1942 0
-142 22 -1942 0
-22 -142 1942 0
22 142 1942 0
143 -23 -1943 0
23 -143 -1943 0
-23 -143 1943 0
23 143 1943 0
144 -24 -1944 0
24 -144 -1944 0
-24 -144 1944 0
24 144 1944 0
145 -25 -1945 0
25 -145 -1945 0
-25 -145 1945 0
25 145 1945 0
-1941 -1942 -1943 -1944 -1945 0
146 -36 -1946 0
36 -146 -1946 0
-36 -146 1946 0
36 146 1946 0
-32 142 -1947 0
-142 32 -1947 0
-32 -142 1947 0
32 142 1947 0
143 -33 -1948 0
33 -143 -1948 0
-33 -143 1948 0
33 143 1948 0
144 -34 -1949 0
34 -144 -1949 0
-34 -144 1949 0
34 144 1949 0
145 -35 -1950 0
35 -145 -1950 0
-35 -145 1950 0
35 145 1950 0
-1946 -1947 -1948 -1949 -1950 0
146 -46 -1951 0
46 -146 -1951 0
-46 -146 1951 0
46 146 1951 0
-42 142 -1952 0
-142 42 -1952 0
-42 -142 1952 0
42 142 1952 0
143 -43 -1953 0
43 -143 -1953 0
-43 -143 1953 0
43 143 1953 0
144 -44 -1954 0
44 -144 -1954 0
-44 -144 1954 0
44 144 1954 0
145 -45 -1955 0
45 -145 -1955 0
-45 -145 1955 0
45 145 1955 0
-1951 -1952 -1953 -1954 -1955 0
146 -56 -1956 0
56 -146 -1956 0
-56 -146 1956 0
56 146 1956 0
-52 142 -1957 0
-142 52 -1957 0
-52 -142 1957 0
52 142 1957 0
143 -53 -1958 0
53 -143 -1958 0
-53 -143 1958 0
53 143 1958 0
144 -54 -1959 0
54 -144 -1959 0
-54 -144 1959 0
54 144 1959 0
145 -55 -1960 0
55 -145 -1960 0
-55 -145 1960 0
55 145 1960 0
-1956 -1957 -1958 -1959 -1960 0
146 -66 -1961 0
66 -146 -1961 0
-66 -146 1961 0
66 146 1961 0
-62 142 -1962 0
-142 62 -1962 0
-62 -142 1962 0
62 142 1962 0
143 -63 -1963 0
63 -143 -1963 0
-63 -143 1963 0
63 143 1963 0
144 -64 -1964 0
64 -144 -1964 0
-64 -144 1964 0
64 144 1964 0
145 -65 -1965 0
65 -145 -1965 0
-65 -145 1965 0
65 145 1965 0
-1961 -1962 -1963 -1964 -1965 0
146 -76 -1966 0
76 -146 -1966 0
-76 -146 1966 0
76 146 1966 0
-72 142 -1967 0
-142 72 -1967 0
-72 -142 1967 0
72 142 1967 0
143 -73 -1968 0
73 -143 -1968 0
-73 -143 1968 0
73 143 1968 0
144 -74 -1969 0
74 -144 -1969 0
-74 -144 1969 0
74 144 1969 0
145 -75 -1970 0
75 -145 -1970 0
-75 -145 1970 0
75 145 1970 0
-1966 -1967 -1968 -1969 -1970 0
146 -86 -1971 0
86 -146 -1971 0
-86 -146 1971 0
86 146 1971 0
-82 142 -1972 0
-142 82 -1972 0
-82 -142 1972 0
82 142 1972 0
143 -83 -1973 0
83 -143 -1973 0
-83 -143 1973 0
83 143 1973 0
144 -84 -1974 0
84 -144 -1974 0
-84 -144 1974 0
84 144 1974 0
145 -85 -1975 0
85 -145 -1975 0
-85 -145 1975 0
85 145 1975 0
-1971 -1972 -1973 -1974 -1975 0
146 -96 -1976 0
96 -146 -1976 0
-96 -146 1976 0
96 146 1976 0
-92 142 -1977 0
-142 92 -1977 0
-92 -142 1977 0
92 142 1977 0
143 -93 -1978 0
93 -143 -1978 0
-93 -143 1978 0
93 143 1978 0
144 -94 -1979 0
94 -144 -1979 0
-94 -144 1979 0
94 144 1979 0
145 -95 -1980 0
95 -145 -1980 0
-95 -145 1980 0
95 145 1980 0
-1976 -1977 -1978 -1979 -1980 0
146 -106 -1981 0
106 -146 -1981 0
-106 -146 1981 0
106 146 1981 0
-102 142 -1982 0
-142 102 -1982 0
-102 -142 1982 0
102 142 1982 0
143 -103 -1983 0
103 -143 -1983 0
-103 -143 1983 0
103 143 1983 0
144 -104 -1984 0
104 -144 -1984 0
-104 -144 1984 0
104 144 1984 0
145 -105 -1985 0
105 -145 -1985 0
-105 -145 1985 0
105 145 1985 0
-1981 -1982 -1983 -1984 -1985 0
146 -116 -1986 0
116 -146 -1986 0
-116 -146 1986 0
116 146 1986 0
-112 142 -1987 0
-142 112 -1987 0
-112 -142 1987 0
112 142 1987 0
143 -113 -1988 0
113 -143 -1988 0
-113 -143 1988 0
113 143 1988 0
144 -114 -1989 0
114 -144 -1989 0
-114 -144 1989 0
114 144 1989 0
145 -115 -1990 0
115 -145 -1990 0
-115 -145 1990 0
115 145 1990 0
-1986 -1987 -1988 -1989 -1990 0
146 -126 -1991 0
126 -146 -1991 0
-126 -146 1991 0
126 146 1991 0
-122 142 -1992 0
-142 122 -1992 0
-122 -142 1992 0
122 142 1992 0
143 -123 -1993 0
123 -143 -1993 0
-123 -143 1993 0
123 143 1993 0
144 -124 -1994 0
124 -144 -1994 0
-124 -144 1994 0
124 144 1994 0
145 -125 -1995 0
125 -145 -1995 0
-125 -145 1995 0
125 145 1995 0
-1991 -1992 -1993 -1994 -1995 0
146 -136 -1996 0
136 -146 -1996 0
-136 -146 1996 0
136 146 1996 0
-132 142 -1997 0
-142 132 -1997 0
-132 -142 1997 0
132 142 1997 0
143 -133 -1998 0
133 -143 -1998 0
-133 -143 1998 0
133 143 1998 0
144 -134 -1999 0
134 -144 -1999 0
-134 -144 1999 0
134 144 1999 0
145 -135 -2000 0
135 -145 -2000 0
-135 -145 2000 0
135 145 2000 0
-1996 -1997 -1998 -1999 -2000 0
146 -156 -2001 0
156 -146 -2001 0
2001 -146 -156 0
146 156 2001 0
-152 142 -2002 0
-142 152 -2002 0
2002 -142 -152 0
142 152 2002 0
143 -153 -2003 0
153 -143 -2003 0
2003 -143 -153 0
143 153 2003 0
144 -154 -2004 0
154 -144 -2004 0
2004 -144 -154 0
144 154 2004 0
145 -155 -2005 0
155 -145 -2005 0
2005 -145 -155 0
145 155 2005 0
-2001 -2002 -2003 -2004 -2005 0
146 -166 -2006 0
166 -146 -2006 0
2006 -146 -166 0
146 166 2006 0
-162 142 -2007 0
-142 162 -2007 0
2007 -142 -162 0
142 162 2007 0
143 -163 -2008 0
163 -143 -2008 0
2008 -143 -163 0
143 163 2008 0
144 -164 -2009 0
164 -144 -2009 0
2009 -144 -164 0
144 164 2009 0
145 -165 -2010 0
165 -145 -2010 0
2010 -145 -165 0
145 165 2010 0
-2006 -2007 -2008 -2009 -2010 0
146 -176 -2011 0
176 -146 -2011 0
2011 -146 -176 0
146 176 2011 0
-172 142 -2012 0
-142 172 -2012 0
2012 -142 -172 0
142 172 2012 0
143 -173 -2013 0
173 -143 -2013 0
2013 -143 -173 0
143 173 2013 0
144 -174 -2014 0
174 -144 -2014 0
2014 -144 -174 0
144 174 2014 0
145 -175 -2015 0
175 -145 -2015 0
2015 -145 -175 0
145 175 2015 0
-2011 -2012 -2013 -2014 -2015 0
146 -186 -2016 0
186 -146 -2016 0
2016 -146 -186 0
146 186 2016 0
-182 142 -2017 0
-142 182 -2017 0
2017 -142 -182 0
142 182 2017 0
143 -183 -2018 0
183 -143 -2018 0
2018 -143 -183 0
143 183 2018 0
144 -184 -2019 0
184 -144 -2019 0
2019 -144 -184 0
144 184 2019 0
145 -185 -2020 0
185 -145 -2020 0
2020 -145 -185 0
145 185 2020 0
-2016 -2017 -2018 -2019 -2020 0
146 -196 -2021 0
196 -146 -2021 0
2021 -146 -196 0
146 196 2021 0
-192 142 -2022 0
-142 192 -2022 0
2022 -142 -192 0
142 192 2022 0
143 -193 -2023 0
193 -143 -2023 0
2023 -143 -193 0
143 193 2023 0
144 -194 -2024 0
194 -144 -2024 0
2024 -144 -194 0
144 194 2024 0
145 -195 -2025 0
195 -145 -2025 0
2025 -145 -195 0
145 195 2025 0
-2021 -2022 -2023 -2024 -2025 0
146 -206 -2026 0
206 -146 -2026 0
2026 -146 -206 0
146 206 2026 0
-202 142 -2027 0
-142 202 -2027 0
2027 -142 -202 0
142 202 2027 0
143 -203 -2028 0
203 -143 -2028 0
2028 -143 -203 0
143 203 2028 0
144 -204 -2029 0
204 -144 -2029 0
2029 -144 -204 0
144 204 2029 0
145 -205 -2030 0
205 -145 -2030 0
2030 -145 -205 0
145 205 2030 0
-2026 -2027 -2028 -2029 -2030 0
146 -216 -2031 0
216 -146 -2031 0
2031 -146 -216 0
146 216 2031 0
-212 142 -2032 0
-142 212 -2032 0
2032 -142 -212 0
142 212 2032 0
143 -213 -2033 0
213 -143 -2033 0
2033 -143 -213 0
143 213 2033 0
144 -214 -2034 0
214 -144 -2034 0
2034 -144 -214 0
144 214 2034 0
145 -215 -2035 0
215 -145 -2035 0
2035 -145 -215 0
145 215 2035 0
-2031 -2032 -2033 -2034 -2035 0
146 -226 -2036 0
226 -146 -2036 0
2036 -146 -226 0
146 226 2036 0
-222 142 -2037 0
-142 222 -2037 0
2037 -142 -222 0
142 222 2037 0
143 -223 -2038 0
223 -143 -2038 0
2038 -143 -223 0
143 223 2038 0
144 -224 -2039 0
224 -144 -2039 0
2039 -144 -224 0
144 224 2039 0
145 -225 -2040 0
225 -145 -2040 0
2040 -145 -225 0
145 225 2040 0
-2036 -2037 -2038 -2039 -2040 0
146 -236 -2041 0
236 -146 -2041 0
2041 -146 -236 0
146 236 2041 0
-232 142 -2042 0
-142 232 -2042 0
2042 -142 -232 0
142 232 2042 0
143 -233 -2043 0
233 -143 -2043 0
2043 -143 -233 0
143 233 2043 0
144 -234 -2044 0
234 -144 -2044 0
2044 -144 -234 0
144 234 2044 0
145 -235 -2045 0
235 -145 -2045 0
2045 -145 -235 0
145 235 2045 0
-2041 -2042 -2043 -2044 -2045 0
146 -246 -2046 0
246 -146 -2046 0
2046 -146 -246 0
146 246 2046 0
-242 142 -2047 0
-142 242 -2047 0
2047 -142 -242 0
142 242 2047 0
143 -243 -2048 0
243 -143 -2048 0
2048 -143 -243 0
143 243 2048 0
144 -244 -2049 0
244 -144 -2049 0
2049 -144 -244 0
144 244 2049 0
145 -245 -2050 0
245 -145 -2050 0
2050 -145 -245 0
145 245 2050 0
-2046 -2047 -2048 -2049 -2050 0
156 -6 -2051 0
6 -156 -2051 0
-6 -156 2051 0
6 156 2051 0
152 -5 -2052 0
-152 5 -2052 0
-152 -5 2052 0
5 152 2052 0
153 -4 -2053 0
4 -153 -2053 0
-4 -153 2053 0
4 153 2053 0
154 -3 -2054 0
3 -154 -2054 0
-3 -154 2054 0
3 154 2054 0
155 -2 -2055 0
2 -155 -2055 0
-2 -155 2055 0
2 155 2055 0
-2051 -2052 -2053 -2054 -2055 0
156 -16 -2056 0
16 -156 -2056 0
-16 -156 2056 0
16 156 2056 0
-12 152 -2057 0
-152 12 -2057 0
-12 -152 2057 0
12 152 2057 0
153 -13 -2058 0
13 -153 -2058 0
-13 -153 2058 0
13 153 2058 0
154 -14 -2059 0
14 -154 -2059 0
-14 -154 2059 0
14 154 2059 0
155 -15 -2060 0
15 -155 -2060 0
-15 -155 2060 0
15 155 2060 0
-2056 -2057 -2058 -2059 -2060 0
156 -26 -2061 0
26 -156 -2061 0
-26 -156 2061 0
26 156 2061 0
-22 152 -2062 0
-152 22 -2062 0
-22 -152 2062 0
22 152 2062 0
153 -23 -2063 0
23 -153 -2063 0
-23 -153 2063 0
23 153 2063 0
154 -24 -2064 0
24 -154 -2064 0
-24 -154 2064 0
24 154 2064 0
155 -25 -2065 0
25 -155 -2065 0
-25 -155 2065 0
25 155 2065 0
-2061 -2062 -2063 -2064 -2065 0
156 -36 -2066 0
36 -156 -2066 0
-36 -156 2066 0
36 156 2066 0
-32 152 -2067 0
-152 32 -2067 0
-32 -152 2067 0
32 152 2067 0
153 -33 -2068 0
33 -153 -2068 0
-33 -153 2068 0
33 153 2068 0
154 -34 -2069 0
34 -154 -2069 0
-34 -154 2069 0
34 154 2069 0
155 -35 -2070 0
35 -155 -2070 0
-35 -155 2070 0
35 155 2070 0
-2066 -2067 -2068 -2069 -2070 0
156 -46 -2071 0
46 -156 -2071 0
-46 -156 2071 0
46 156 2071 0
-42 152 -2072 0
-152 42 -2072 0
-42 -152 2072 0
42 152 2072 0
153 -43 -2073 0
43 -153 -2073 0
-43 -153 2073 0
43 153 2073 0
154 -44 -2074 0
44 -154 -2074 0
-44 -154 2074 0
44 154 2074 0
155 -45 -2075 0
45 -155 -2075 0
-45 -155 2075 0
45 155 2075 0
-2071 -2072 -2073 -2074 -2075 0
156 -56 -2076 0
56 -156 -2076 0
-56 -156 2076 0
56 156 2076 0
-52 152 -2077 0
-152 52 -2077 0
-52 -152 2077 0
52 152 2077 0
153 -53 -2078 0
53 -153 -2078 0
-53 -153 2078 0
53 153 2078 0
154 -54 -2079 0
54 -154 -2079 0
-54 -154 2079 0
54 154 2079 0
155 -55 -2080 0
55 -155 -2080 0
-55 -155 2080 0
55 155 2080 0
-2076 -2077 -2078 -2079 -2080 0
156 -66 -2081 0
66 -156 -2081 0
-66 -156 2081 0
66 156 2081 0
-62 152 -2082 0
-152 62 -2082 0
-62 -152 2082 0
62 152 2082 0
153 -63 -2083 0
63 -153 -2083 0
-63 -153 2083 0
63 153 2083 0
154 -64 -2084 0
64 -154 -2084 0
-64 -154 2084 0
64 154 2084 0
155 -65 -2085 0
65 -155 -2085 0
-65 -155 2085 0
65 155 2085 0
-2081 -2082 -2083 -2084 -2085 0
156 -76 -2086 0
76 -156 -2086 0
-76 -156 2086 0
76 156 2086 0
-72 152 -2087 0
-152 72 -2087 0
-72 -152 2087 0
72 152 2087 0
153 -73 -2088 0
73 -153 -2088 0
-73 -153 2088 0
73 153 2088 0
154 -74 -2089 0
74 -154 -2089 0
-74 -154 2089 0
74 154 2089 0
155 -75 -2090 0
75 -155 -2090 0
-75 -155 2090 0
75 155 2090 0
-2086 -2087 -2088 -2089 -2090 0
156 -86 -2091 0
86 -156 -2091 0
-86 -156 2091 0
86 156 2091 0
-82 152 -2092 0
-152 82 -2092 0
-82 -152 2092 0
82 152 2092 0
153 -83 -2093 0
83 -153 -2093 0
-83 -153 2093 0
83 153 2093 0
154 -84 -2094 0
84 -154 -2094 0
-84 -154 2094 0
84 154 2094 0
155 -85 -2095 0
85 -155 -2095 0
-85 -155 2095 0
85 155 2095 0
-2091 -2092 -2093 -2094 -2095 0
156 -96 -2096 0
96 -156 -2096 0
-96 -156 2096 0
96 156 2096 0
-92 152 -2097 0
-152 92 -2097 0
-92 -152 2097 0
92 152 2097 0
153 -93 -2098 0
93 -153 -2098 0
-93 -153 2098 0
93 153 2098 0
154 -94 -2099 0
94 -154 -2099 0
-94 -154 2099 0
94 154 2099 0
155 -95 -2100 0
95 -155 -2100 0
-95 -155 2100 0
95 155 2100 0
-2096 -2097 -2098 -2099 -2100 0
156 -106 -2101 0
106 -156 -2101 0
-106 -156 2101 0
106 156 2101 0
-102 152 -2102 0
-152 102 -2102 0
-102 -152 2102 0
102 152 2102 0
153 -103 -2103 0
103 -153 -2103 0
-103 -153 2103 0
103 153 2103 0
154 -104 -2104 0
104 -154 -2104 0
-104 -154 2104 0
104 154 2104 0
155 -105 -2105 0
105 -155 -2105 0
-105 -155 2105 0
105 155 2105 0
-2101 -2102 -2103 -2104 -2105 0
156 -116 -2106 0
116 -156 -2106 0
-116 -156 2106 0
116 156 2106 0
-112 152 -2107 0
-152 112 -2107 0
-112 -152 2107 0
112 152 2107 0
153 -113 -2108 0
113 -153 -2108 0
-113 -153 2108 0
113 153 2108 0
154 -114 -2109 0
114 -154 -2109 0
-114 -154 2109 0
114 154 2109 0
155 -115 -2110 0
115 -155 -2110 0
-115 -155 2110 0
115 155 2110 0
-2106 -2107 -2108 -2109 -2110 0
156 -126 -2111 0
126 -156 -2111 0
-126 -156 2111 0
126 156 2111 0
-122 152 -2112 0
-152 122 -2112 0
-122 -152 2112 0
122 152 2112 0
153 -123 -2113 0
123 -153 -2113 0
-123 -153 2113 0
123 153 2113 0
154 -124 -2114 0
124 -154 -2114 0
-124 -154 2114 0
124 154 2114 0
155 -125 -2115 0
125 -155 -2115 0
-125 -155 2115 0
125 155 2115 0
-2111 -2112 -2113 -2114 -2115 0
156 -136 -2116 0
136 -156 -2116 0
-136 -156 2116 0
136 156 2116 0
-132 152 -2117 0
-152 132 -2117 0
-132 -152 2117 0
132 152 2117 0
153 -133 -2118 0
133 -153 -2118 0
-133 -153 2118 0
133 153 2118 0
154 -134 -2119 0
134 -154 -2119 0
-134 -154 2119 0
134 154 2119 0
155 -135 -2120 0
135 -155 -2120 0
-135 -155 2120 0
135 155 2120 0
-2116 -2117 -2118 -2119 -2120 0
156 -146 -2121 0
146 -156 -2121 0
-146 -156 2121 0
146 156 2121 0
-142 152 -2122 0
-152 142 -2122 0
-142 -152 2122 0
142 152 2122 0
153 -143 -2123 0
143 -153 -2123 0
-143 -153 2123 0
143 153 2123 0
154 -144 -2124 0
144 -154 -2124 0
-144 -154 2124 0
144 154 2124 0
155 -145 -2125 0
145 -155 -2125 0
-145 -155 2125 0
145 155 2125 0
-2121 -2122 -2123 -2124 -2125 0
156 -166 -2126 0
166 -156 -2126 0
2126 -156 -166 0
156 166 2126 0
-162 152 -2127 0
-152 162 -2127 0
2127 -152 -162 0
152 162 2127 0
153 -163 -2128 0
163 -153 -2128 0
2128 -153 -163 0
153 163 2128 0
154 -164 -2129 0
164 -154 -2129 0
2129 -154 -164 0
154 164 2129 0
155 -165 -2130 0
165 -155 -2130 0
2130 -155 -165 0
155 165 2130 0
-2126 -2127 -2128 -2129 -2130 0
156 -176 -2131 0
176 -156 -2131 0
2131 -156 -176 0
156 176 2131 0
-172 152 -2132 0
-152 172 -2132 0
2132 -152 -172 0
152 172 2132 0
153 -173 -2133 0
173 -153 -2133 0
2133 -153 -173 0
153 173 2133 0
154 -174 -2134 0
174 -154 -2134 0
2134 -154 -174 0
154 174 2134 0
155 -175 -2135 0
175 -155 -2135 0
2135 -155 -175 0
155 175 2135 0
-2131 -2132 -2133 -2134 -2135 0
156 -186 -2136 0
186 -156 -2136 0
2136 -156 -186 0
156 186 2136 0
-182 152 -2137 0
-152 182 -2137 0
2137 -152 -182 0
152 182 2137 0
153 -183 -2138 0
183 -153 -2138 0
2138 -153 -183 0
153 183 2138 0
154 -184 -2139 0
184 -154 -2139 0
2139 -154 -184 0
154 184 2139 0
155 -185 -2140 0
185 -155 -2140 0
2140 -155 -185 0
155 185 2140 0
-2136 -2137 -2138 -2139 -2140 0
156 -196 -2141 0
196 -156 -2141 0
2141 -156 -196 0
156 196 2141 0
-192 152 -2142 0
-152 192 -2142 0
2142 -152 -192 0
152 192 2142 0
153 -193 -2143 0
193 -153 -2143 0
2143 -153 -193 0
153 193 2143 0
154 -194 -2144 0
194 -154 -2144 0
2144 -154 -194 0
154 194 2144 0
155 -195 -2145 0
195 -155 -2145 0
2145 -155 -195 0
155 195 2145 0
-2141 -2142 -2143 -2144 -2145 0
156 -206 -2146 0
206 -156 -2146 0
2146 -156 -206 0
156 206 2146 0
-202 152 -2147 0
-152 202 -2147 0
2147 -152 -202 0
152 202 2147 0
153 -203 -2148 0
203 -153 -2148 0
2148 -153 -203 0
153 203 2148 0
154 -204 -2149 0
204 -154 -2149 0
2149 -154 -204 0
154 204 2149 0
155 -205 -2150 0
205 -155 -2150 0
2150 -155 -205 0
155 205 2150 0
-2146 -2147 -2148 -2149 -2150 0
156 -216 -2151 0
216 -156 -2151 0
2151 -156 -216 0
156 216 2151 0
-212 152 -2152 0
-152 212 -2152 0
2152 -152 -212 0
152 212 2152 0
153 -213 -2153 0
213 -153 -2153 0
2153 -153 -213 0
153 213 2153 0
154 -214 -2154 0
214 -154 -2154 0
2154 -154 -214 0
154 214 2154 0
155 -215 -2155 0
215 -155 -2155 0
2155 -155 -215 0
155 215 2155 0
-2151 -2152 -2153 -2154 -2155 0
156 -226 -2156 0
226 -156 -2156 0
2156 -156 -226 0
156 226 2156 0
-222 152 -2157 0
-152 222 -2157 0
2157 -152 -222 0
152 222 2157 0
153 -223 -2158 0
223 -153 -2158 0
2158 -153 -223 0
153 223 2158 0
154 -224 -2159 0
224 -154 -2159 0
2159 -154 -224 0
154 224 2159 0
155 -225 -2160 0
225 -155 -2160 0
2160 -155 -225 0
155 225 2160 0
-2156 -2157 -2158 -2159 -2160 0
156 -236 -2161 0
236 -156 -2161 0
2161 -156 -236 0
156 236 2161 0
-232 152 -2162 0
-152 232 -2162 0
2162 -152 -232 0
152 232 2162 0
153 -233 -2163 0
233 -153 -2163 0
2163 -153 -233 0
153 233 2163 0
154 -234 -2164 0
234 -154 -2164 0
2164 -154 -234 0
154 234 2164 0
155 -235 -2165 0
235 -155 -2165 0
2165 -155 -235 0
155 235 2165 0
-2161 -2162 -2163 -2164 -2165 0
156 -246 -2166 0
246 -156 -2166 0
2166 -156 -246 0
156 246 2166 0
-242 152 -2167 0
-152 242 -2167 0
2167 -152 -242 0
152 242 2167 0
153 -243 -2168 0
243 -153 -2168 0
2168 -153 -243 0
153 243 2168 0
154 -244 -2169 0
244 -154 -2169 0
2169 -154 -244 0
154 244 2169 0
155 -245 -2170 0
245 -155 -2170 0
2170 -155 -245 0
155 245 2170 0
-2166 -2167 -2168 -2169 -2170 0
166 -6 -2171 0
6 -166 -2171 0
-6 -166 2171 0
6 166 2171 0
162 -5 -2172 0
-162 5 -2172 0
-162 -5 2172 0
5 162 2172 0
163 -4 -2173 0
4 -163 -2173 0
-4 -163 2173 0
4 163 2173 0
164 -3 -2174 0
3 -164 -2174 0
-3 -164 2174 0
3 164 2174 0
165 -2 -2175 0
2 -165 -2175 0
-2 -165 2175 0
2 165 2175 0
-2171 -2172 -2173 -2174 -2175 0
166 -16 -2176 0
16 -166 -2176 0
-16 -166 2176 0
16 166 2176 0
-12 162 -2177 0
-162 12 -2177 0
-12 -162 2177 0
12 162 2177 0
163 -13 -2178 0
13 -163 -2178 0
-13 -163 2178 0
13 163 2178 0
164 -14 -2179 0
14 -164 -2179 0
-14 -164 2179 0
14 164 2179 0
165 -15 -2180 0
15 -165 -2180 0
-15 -165 2180 0
15 165 2180 0
-2176 -2177 -2178 -2179 -2180 0
166 -26 -2181 0
26 -166 -2181 0
-26 -166 2181 0
26 166 2181 0
-22 162 -2182 0
-162 22 -2182 0
-22 -162 2182 0
22 162 2182 0
163 -23 -2183 0
23 -163 -2183 0
-23 -163 2183 0
23 163 2183 0
164 -24 -2184 0
24 -164 -2184 0
-24 -164 2184 0
24 164 2184 0
165 -25 -2185 0
25 -165 -2185 0
-25 -165 2185 0
25 165 2185 0
-2181 -2182 -2183 -2184 -2185 0
166 -36 -2186 0
36 -166 -2186 0
-36 -166 2186 0
36 166 2186 0
-32 162 -2187 0
-162 32 -2187 0
-32 -162 2187 0
32 162 2187 0
163 -33 -2188 0
33 -163 -2188 0
-33 -163 2188 0
33 163 2188 0
164 -34 -2189 0
34 -164 -2189 0
-34 -164 2189 0
34 164 2189 0
165 -35 -2190 0
35 -165 -2190 0
-35 -165 2190 0
35 165 2190 0
-2186 -2187 -2188 -2189 -2190 0
166 -46 -2191 0
46 -166 -2191 0
-46 -166 2191 0
46 166 2191 0
-42 162 -2192 0
-162 42 -2192 0
-42 -162 2192 0
42 162 2192 0
163 -43 -2193 0
43 -163 -2193 0
-43 -163 2193 0
43 163 2193 0
164 -44 -2194 0
44 -164 -2194 0
-44 -164 2194 0
44 164 2194 0
165 -45 -2195 0
45 -165 -2195 0
-45 -165 2195 0
45 165 2195 0
-2191 -2192 -2193 -2194 -2195 0
166 -56 -2196 0
56 -166 -2196 0
-56 -166 2196 0
56 166 2196 0
-52 162 -2197 0
-162 52 -2197 0
-52 -162 2197 0
52 162 2197 0
163 -53 -2198 0
53 -163 -2198 0
-53 -163 2198 0
53 163 2198 0
164 -54 -2199 0
54 -164 -2199 0
-54 -164 2199 0
54 164 2199 0
165 -55 -2200 0
55 -165 -2200 0
-55 -165 2200 0
55 165 2200 0
-2196 -2197 -2198 -2199 -2200 0
166 -66 -2201 0
66 -166 -2201 0
-66 -166 2201 0
66 166 2201 0
-62 162 -2202 0
-162 62 -2202 0
-62 -162 2202 0
62 162 2202 0
163 -63 -2203 0
63 -163 -2203 0
-63 -163 2203 0
63 163 2203 0
164 -64 -2204 0
64 -164 -2204 0
-64 -164 2204 0
64 164 2204 0
165 -65 -2205 0
65 -165 -2205 0
-65 -165 2205 0
65 165 2205 0
-2201 -2202 -2203 -2204 -2205 0
166 -76 -2206 0
76 -166 -2206 0
-76 -166 2206 0
76 166 2206 0
-72 162 -2207 0
-162 72 -2207 0
-72 -162 2207 0
72 162 2207 0
163 -73 -2208 0
73 -163 -2208 0
-73 -163 2208 0
73 163 2208 0
164 -74 -2209 0
74 -164 -2209 0
-74 -164 2209 0
74 164 2209 0
165 -75 -2210 0
75 -165 -2210 0
-75 -165 2210 0
75 165 2210 0
-2206 -2207 -2208 -2209 -2210 0
166 -86 -2211 0
86 -166 -2211 0
-86 -166 2211 0
86 166 2211 0
-82 162 -2212 0
-162 82 -2212 0
-82 -162 2212 0
82 162 2212 0
163 -83 -2213 0
83 -163 -2213 0
-83 -163 2213 0
83 163 2213 0
164 -84 -2214 0
84 -164 -2214 0
-84 -164 2214 0
84 164 2214 0
165 -85 -2215 0
85 -165 -2215 0
-85 -165 2215 0
85 165 2215 0
-2211 -2212 -2213 -2214 -2215 0
166 -96 -2216 0
96 -166 -2216 0
-96 -166 2216 0
96 166 2216 0
-92 162 -2217 0
-162 92 -2217 0
-92 -162 2217 0
92 162 2217 0
163 -93 -2218 0
93 -163 -2218 0
-93 -163 2218 0
93 163 2218 0
164 -94 -2219 0
94 -164 -2219 0
-94 -164 2219 0
94 164 2219 0
165 -95 -2220 0
95 -165 -2220 0
-95 -165 2220 0
95 165 2220 0
-2216 -2217 -2218 -2219 -2220 0
166 -106 -2221 0
106 -166 -2221 0
-106 -166 2221 0
106 166 2221 0
-102 162 -2222 0
-162 102 -2222 0
-102 -162 2222 0
102 162 2222 0
163 -103 -2223 0
103 -163 -2223 0
-103 -163 2223 0
103 163 2223 0
164 -104 -2224 0
104 -164 -2224 0
-104 -164 2224 0
104 164 2224 0
165 -105 -2225 0
105 -165 -2225 0
-105 -165 2225 0
105 165 2225 0
-2221 -2222 -2223 -2224 -2225 0
166 -116 -2226 0
116 -166 -2226 0
-116 -166 2226 0
116 166 2226 0
-112 162 -2227 0
-162 112 -2227 0
-112 -162 2227 0
112 162 2227 0
163 -113 -2228 0
113 -163 -2228 0
-113 -163 2228 0
113 163 2228 0
164 -114 -2229 0
114 -164 -2229 0
-114 -164 2229 0
114 164 2229 0
165 -115 -2230 0
115 -165 -2230 0
-115 -165 2230 0
115 165 2230 0
-2226 -2227 -2228 -2229 -2230 0
166 -126 -2231 0
126 -166 -2231 0
-126 -166 2231 0
126 166 2231 0
-122 162 -2232 0
-162 122 -2232 0
-122 -162 2232 0
122 162 2232 0
163 -123 -2233 0
123 -163 -2233 0
-123 -163 2233 0
123 163 2233 0
164 -124 -2234 0
124 -164 -2234 0
-124 -164 2234 0
124 164 2234 0
165 -125 -2235 0
125 -165 -2235 0
-125 -165 2235 0
125 165 2235 0
-2231 -2232 -2233 -2234 -2235 0
166 -136 -2236 0
136 -166 -2236 0
-136 -166 2236 0
136 166 2236 0
-132 162 -2237 0
-162 132 -2237 0
-132 -162 2237 0
132 162 2237 0
163 -133 -2238 0
133 -163 -2238 0
-133 -163 2238 0
133 163 2238 0
164 -134 -2239 0
134 -164 -2239 0
-134 -164 2239 0
134 164 2239 0
165 -135 -2240 0
135 -165 -2240 0
-135 -165 2240 0
135 165 2240 0
-2236 -2237 -2238 -2239 -2240 0
166 -146 -2241 0
146 -166 -2241 0
-146 -166 2241 0
146 166 2241 0
-142 162 -2242 0
-162 142 -2242 0
-142 -162 2242 0
142 162 2242 0
163 -143 -2243 0
143 -163 -2243 0
-143 -163 2243 0
143 163 2243 0
164 -144 -2244 0
144 -164 -2244 0
-144 -164 2244 0
144 164 2244 0
165 -145 -2245 0
145 -165 -2245 0
-145 -165 2245 0
145 165 2245 0
-2241 -2242 -2243 -2244 -2245 0
166 -156 -2246 0
156 -166 -2246 0
-156 -166 2246 0
156 166 2246 0
-152 162 -2247 0
-162 152 -2247 0
-152 -162 2247 0
152 162 2247 0
163 -153 -2248 0
153 -163 -2248 0
-153 -163 2248 0
153 163 2248 0
164 -154 -2249 0
154 -164 -2249 0
-154 -164 2249 0
154 164 2249 0
165 -155 -2250 0
155 -165 -2250 0
-155 -165 2250 0
155 165 2250 0
-2246 -2247 -2248 -2249 -2250 0
166 -176 -2251 0
176 -166 -2251 0
2251 -166 -176 0
166 176 2251 0
-172 162 -2252 0
-162 172 -2252 0
2252 -162 -172 0
162 172 2252 0
163 -173 -2253 0
173 -163 -2253 0
2253 -163 -173 0
163 173 2253 0
164 -174 -2254 0
174 -164 -2254 0
2254 -164 -174 0
164 174 2254 0
165 -175 -2255 0
175 -165 -2255 0
2255 -165 -175 0
165 175 2255 0
-2251 -2252 -2253 -2254 -2255 0
166 -186 -2256 0
186 -166 -2256 0
2256 -166 -186 0
166 186 2256 0
-182 162 -2257 0
-162 182 -2257 0
2257 -162 -182 0
162 182 2257 0
163 -183 -2258 0
183 -163 -2258 0
2258 -163 -183 0
163 183 2258 0
164 -184 -2259 0
184 -164 -2259 0
2259 -164 -184 0
164 184 2259 0
165 -185 -2260 0
185 -165 -2260 0
2260 -165 -185 0
165 185 2260 0
-2256 -2257 -2258 -2259 -2260 0
166 -196 -2261 0
196 -166 -2261 0
2261 -166 -196 0
166 196 2261 0
-192 162 -2262 0
-162 192 -2262 0
2262 -162 -192 0
162 192 2262 0
163 -193 -2263 0
193 -163 -2263 0
2263 -163 -193 0
163 193 2263 0
164 -194 -2264 0
194 -164 -2264 0
2264 -164 -194 0
164 194 2264 0
165 -195 -2265 0
195 -165 -2265 0
2265 -165 -195 0
165 195 2265 0
-2261 -2262 -2263 -2264 -2265 0
166 -206 -2266 0
206 -166 -2266 0
2266 -166 -206 0
166 206 2266 0
-202 162 -2267 0
-162 202 -2267 0
2267 -162 -202 0
162 202 2267 0
163 -203 -2268 0
203 -163 -2268 0
2268 -163 -203 0
163 203 2268 0
164 -204 -2269 0
204 -164 -2269 0
2269 -164 -204 0
164 204 2269 0
165 -205 -2270 0
205 -165 -2270 0
2270 -165 -205 0
165 205 2270 0
-2266 -2267 -2268 -2269 -2270 0
166 -216 -2271 0
216 -166 -2271 0
2271 -166 -216 0
166 216 2271 0
-212 162 -2272 0
-162 212 -2272 0
2272 -162 -212 0
162 212 2272 0
163 -213 -2273 0
213 -163 -2273 0
2273 -163 -213 0
163 213 2273 0
164 -214 -2274 0
214 -164 -2274 0
2274 -164 -214 0
164 214 2274 0
165 -215 -2275 0
215 -165 -2275 0
2275 -165 -215 0
165 215 2275 0
-2271 -2272 -2273 -2274 -2275 0
166 -226 -2276 0
226 -166 -2276 0
2276 -166 -226 0
166 226 2276 0
-222 162 -2277 0
-162 222 -2277 0
2277 -162 -222 0
162 222 2277 0
163 -223 -2278 0
223 -163 -2278 0
2278 -163 -223 0
163 223 2278 0
164 -224 -2279 0
224 -164 -2279 0
2279 -164 -224 0
164 224 2279 0
165 -225 -2280 0
225 -165 -2280 0
2280 -165 -225 0
165 225 2280 0
-2276 -2277 -2278 -2279 -2280 0
166 -236 -2281 0
236 -166 -2281 0
2281 -166 -236 0
166 236 2281 0
-232 162 -2282 0
-162 232 -2282 0
2282 -162 -232 0
162 232 2282 0
163 -233 -2283 0
233 -163 -2283 0
2283 -163 -233 0
163 233 2283 0
164 -234 -2284 0
234 -164 -2284 0
2284 -164 -234 0
164 234 2284 0
165 -235 -2285 0
235 -165 -2285 0
2285 -165 -235 0
165 235 2285 0
-2281 -2282 -2283 -2284 -2285 0
166 -246 -2286 0
246 -166 -2286 0
2286 -166 -246 0
166 246 2286 0
-242 162 -2287 0
-162 242 -2287 0
2287 -162 -242 0
162 242 2287 0
163 -243 -2288 0
243 -163 -2288 0
2288 -163 -243 0
163 243 2288 0
164 -244 -2289 0
244 -164 -2289 0
2289 -164 -244 0
164 244 2289 0
165 -245 -2290 0
245 -165 -2290 0
2290 -165 -245 0
165 245 2290 0
-2286 -2287 -2288 -2289 -2290 0
176 -6 -2291 0
6 -176 -2291 0
-6 -176 2291 0
6 176 2291 0
172 -5 -2292 0
-172 5 -2292 0
-172 -5 2292 0
5 172 2292 0
173 -4 -2293 0
4 -173 -2293 0
-4 -173 2293 0
4 173 2293 0
174 -3 -2294 0
3 -174 -2294 0
-3 -174 2294 0
3 174 2294 0
175 -2 -2295 0
2 -175 -2295 0
-2 -175 2295 0
2 175 2295 0
-2291 -2292 -2293 -2294 -2295 0
176 -16 -2296 0
16 -176 -2296 0
-16 -176 2296 0
16 176 2296 0
-12 172 -2297 0
-172 12 -2297 0
-12 -172 2297 0
12 172 2297 0
173 -13 -2298 0
13 -173 -2298 0
-13 -173 2298 0
13 173 2298 0
174 -14 -2299 0
14 -174 -2299 0
-14 -174 2299 0
14 174 2299 0
175 -15 -2300 0
15 -175 -2300 0
-15 -175 2300 0
15 175 2300 0
-2296 -2297 -2298 -2299 -2300 0
176 -26 -2301 0
26 -176 -2301 0
-26 -176 2301 0
26 176 2301 0
-22 172 -2302 0
-172 22 -2302 0
-22 -172 2302 0
22 172 2302 0
173 -23 -2303 0
23 -173 -2303 0
-23 -173 2303 0
23 173 2303 0
174 -24 -2304 0
24 -174 -2304 0
-24 -174 2304 0
24 174 2304 0
175 -25 -2305 0
25 -175 -2305 0
-25 -175 2305 0
25 175 2305 0
-2301 -2302 -2303 -2304 -2305 0
176 -36 -2306 0
36 -176 -2306 0
-36 -176 2306 0
36 176 2306 0
-32 172 -2307 0
-172 32 -2307 0
-32 -172 2307 0
32 172 2307 0
173 -33 -2308 0
33 -173 -2308 0
-33 -173 2308 0
33 173 2308 0
174 -34 -2309 0
34 -174 -2309 0
-34 -174 2309 0
34 174 2309 0
175 -35 -2310 0
35 -175 -2310 0
-35 -175 2310 0
35 175 2310 0
-2306 -2307 -2308 -2309 -2310 0
176 -46 -2311 0
46 -176 -2311 0
-46 -176 2311 0
46 176 2311 0
-42 172 -2312 0
-172 42 -2312 0
-42 -172 2312 0
42 172 2312 0
173 -43 -2313 0
43 -173 -2313 0
-43 -173 2313 0
43 173 2313 0
174 -44 -2314 0
44 -174 -2314 0
-44 -174 2314 0
44 174 2314 0
175 -45 -2315 0
45 -175 -2315 0
-45 -175 2315 0
45 175 2315 0
-2311 -2312 -2313 -2314 -2315 0
176 -56 -2316 0
56 -176 -2316 0
-56 -176 2316 0
56 176 2316 0
-52 172 -2317 0
-172 52 -2317 0
-52 -172 2317 0
52 172 2317 0
173 -53 -2318 0
53 -173 -2318 0
-53 -173 2318 0
53 173 2318 0
174 -54 -2319 0
54 -174 -2319 0
-54 -174 2319 0
54 174 2319 0
175 -55 -2320 0
55 -175 -2320 0
-55 -175 2320 0
55 175 2320 0
-2316 -2317 -2318 -2319 -2320 0
176 -66 -2321 0
66 -176 -2321 0
-66 -176 2321 0
66 176 2321 0
-62 172 -2322 0
-172 62 -2322 0
-62 -172 2322 0
62 172 2322 0
173 -63 -2323 0
63 -173 -2323 0
-63 -173 2323 0
63 173 2323 0
174 -64 -2324 0
64 -174 -2324 0
-64 -174 2324 0
64 174 2324 0
175 -65 -2325 0
65 -175 -2325 0
-65 -175 2325 0
65 175 2325 0
-2321 -2322 -2323 -2324 -2325 0
176 -76 -2326 0
76 -176 -2326 0
-76 -176 2326 0
76 176 2326 0
-72 172 -2327 0
-172 72 -2327 0
-72 -172 2327 0
72 172 2327 0
173 -73 -2328 0
73 -173 -2328 0
-73 -173 2328 0
73 173 2328 0
174 -74 -2329 0
74 -174 -2329 0
-74 -174 2329 0
74 174 2329 0
175 -75 -2330 0
75 -175 -2330 0
-75 -175 2330 0
75 175 2330 0
-2326 -2327 -2328 -2329 -2330 0
176 -86 -2331 0
86 -176 -2331 0
-86 -176 2331 0
86 176 2331 0
-82 172 -2332 0
-172 82 -2332 0
-82 -172 2332 0
82 172 2332 0
173 -83 -2333 0
83 -173 -2333 0
-83 -173 2333 0
83 173 2333 0
174 -84 -2334 0
84 -174 -2334 0
-84 -174 2334 0
84 174 2334 0
175 -85 -2335 0
85 -175 -2335 0
-85 -175 2335 0
85 175 2335 0
-2331 -2332 -2333 -2334 -2335 0
176 -96 -2336 0
96 -176 -2336 0
-96 -176 2336 0
96 176 2336 0
-92 172 -2337 0
-172 92 -2337 0
-92 -172 2337 0
92 172 2337 0
173 -93 -2338 0
93 -173 -2338 0
-93 -173 2338 0
93 173 2338 0
174 -94 -2339 0
94 -174 -2339 0
-94 -174 2339 0
94 174 2339 0
175 -95 -2340 0
95 -175 -2340 0
-95 -175 2340 0
95 175 2340 0
-2336 -2337 -2338 -2339 -2340 0
176 -106 -2341 0
106 -176 -2341 0
-106 -176 2341 0
106 176 2341 0
-102 172 -2342 0
-172 102 -2342 0
-102 -172 2342 0
102 172 2342 0
173 -103 -2343 0
103 -173 -2343 0
-103 -173 2343 0
103 173 2343 0
174 -104 -2344 0
104 -174 -2344 0
-104 -174 2344 0
104 174 2344 0
175 -105 -2345 0
105 -175 -2345 0
-105 -175 2345 0
105 175 2345 0
-2341 -2342 -2343 -2344 -2345 0
176 -116 -2346 0
116 -176 -2346 0
-116 -176 2346 0
116 176 2346 0
-112 172 -2347 0
-172 112 -2347 0
-112 -172 2347 0
112 172 2347 0
173 -113 -2348 0
113 -173 -2348 0
-113 -173 2348 0
113 173 2348 0
174 -114 -2349 0
114 -174 -2349 0
-114 -174 2349 0
114 174 2349 0
175 -115 -2350 0
115 -175 -2350 0
-115 -175 2350 0
115 175 2350 0
-2346 -2347 -2348 -2349 -2350 0
176 -126 -2351 0
126 -176 -2351 0
-126 -176 2351 0
126 176 2351 0
-122 172 -2352 0
-172 122 -2352 0
-122 -172 2352 0
122 172 2352 0
173 -123 -2353 0
123 -173 -2353 0
-123 -173 2353 0
123 173 2353 0
174 -124 -2354 0
124 -174 -2354 0
-124 -174 2354 0
124 174 2354 0
175 -125 -2355 0
125 -175 -2355 0
-125 -175 2355 0
125 175 2355 0
-2351 -2352 -2353 -2354 -2355 0
176 -136 -2356 0
136 -176 -2356 0
-136 -176 2356 0
136 176 2356 0
-132 172 -2357 0
-172 132 -2357 0
-132 -172 2357 0
132 172 2357 0
173 -133 -2358 0
133 -173 -2358 0
-133 -173 2358 0
133 173 2358 0
174 -134 -2359 0
134 -174 -2359 0
-134 -174 2359 0
134 174 2359 0
175 -135 -2360 0
135 -175 -2360 0
-135 -175 2360 0
135 175 2360 0
-2356 -2357 -2358 -2359 -2360 0
176 -146 -2361 0
146 -176 -2361 0
-146 -176 2361 0
146 176 2361 0
-142 172 -2362 0
-172 142 -2362 0
-142 -172 2362 0
142 172 2362 0
173 -143 -2363 0
143 -173 -2363 0
-143 -173 2363 0
143 173 2363 0
174 -144 -2364 0
144 -174 -2364 0
-144 -174 2364 0
144 174 2364 0
175 -145 -2365 0
145 -175 -2365 0
-145 -175 2365 0
145 175 2365 0
-2361 -2362 -2363 -2364 -2365 0
176 -156 -2366 0
156 -176 -2366 0
-156 -176 2366 0
156 176 2366 0
-152 172 -2367 0
-172 152 -2367 0
-152 -172 2367 0
152 172 2367 0
173 -153 -2368 0
153 -173 -2368 0
-153 -173 2368 0
153 173 2368 0
174 -154 -2369 0
154 -174 -2369 0
-154 -174 2369 0
154 174 2369 0
175 -155 -2370 0
155 -175 -2370 0
-155 -175 2370 0
155 175 2370 0
-2366 -2367 -2368 -2369 -2370 0
176 -166 -2371 0
166 -176 -2371 0
-166 -176 2371 0
166 176 2371 0
-162 172 -2372 0
-172 162 -2372 0
-162 -172 2372 0
162 172 2372 0
173 -163 -2373 0
163 -173 -2373 0
-163 -173 2373 0
163 173 2373 0
174 -164 -2374 0
164 -174 -2374 0
-164 -174 2374 0
164 174 2374 0
175 -165 -2375 0
165 -175 -2375 0
-165 -175 2375 0
165 175 2375 0
-2371 -2372 -2373 -2374 -2375 0
176 -186 -2376 0
186 -176 -2376 0
2376 -176 -186 0
176 186 2376 0
-182 172 -2377 0
-172 182 -2377 0
2377 -172 -182 0
172 182 2377 0
173 -183 -2378 0
183 -173 -2378 0
2378 -173 -183 0
173 183 2378 0
174 -184 -2379 0
184 -174 -2379 0
2379 -174 -184 0
174 184 2379 0
175 -185 -2380 0
185 -175 -2380 0
2380 -175 -185 0
175 185 2380 0
-2376 -2377 -2378 -2379 -2380 0
176 -196 -2381 0
196 -176 -2381 0
2381 -176 -196 0
176 196 2381 0
-192 172 -2382 0
-172 192 -2382 0
2382 -172 -192 0
172 192 2382 0
173 -193 -2383 0
193 -173 -2383 0
2383 -173 -193 0
173 193 2383 0
174 -194 -2384 0
194 -174 -2384 0
2384 -174 -194 0
174 194 2384 0
175 -195 -2385 0
195 -175 -2385 0
2385 -175 -195 0
175 195 2385 0
-2381 -2382 -2383 -2384 -2385 0
176 -206 -2386 0
206 -176 -2386 0
2386 -176 -206 0
176 206 2386 0
-202 172 -2387 0
-172 202 -2387 0
2387 -172 -202 0
172 202 2387 0
173 -203 -2388 0
203 -173 -2388 0
2388 -173 -203 0
173 203 2388 0
174 -204 -2389 0
204 -174 -2389 0
2389 -174 -204 0
174 204 2389 0
175 -205 -2390 0
205 -175 -2390 0
2390 -175 -205 0
175 205 2390 0
-2386 -2387 -2388 -2389 -2390 0
176 -216 -2391 0
216 -176 -2391 0
2391 -176 -216 0
176 216 2391 0
-212 172 -2392 0
-172 212 -2392 0
2392 -172 -212 0
172 212 2392 0
173 -213 -2393 0
213 -173 -2393 0
2393 -173 -213 0
173 213 2393 0
174 -214 -2394 0
214 -174 -2394 0
2394 -174 -214 0
174 214 2394 0
175 -215 -2395 0
215 -175 -2395 0
2395 -175 -215 0
175 215 2395 0
-2391 -2392 -2393 -2394 -2395 0
176 -226 -2396 0
226 -176 -2396 0
2396 -176 -226 0
176 226 2396 0
-222 172 -2397 0
-172 222 -2397 0
2397 -172 -222 0
172 222 2397 0
173 -223 -2398 0
223 -173 -2398 0
2398 -173 -223 0
173 223 2398 0
174 -224 -2399 0
224 -174 -2399 0
2399 -174 -224 0
174 224 2399 0
175 -225 -2400 0
225 -175 -2400 0
2400 -175 -225 0
175 225 2400 0
-2396 -2397 -2398 -2399 -2400 0
176 -236 -2401 0
236 -176 -2401 0
2401 -176 -236 0
176 236 2401 0
-232 172 -2402 0
-172 232 -2402 0
2402 -172 -232 0
172 232 2402 0
173 -233 -2403 0
233 -173 -2403 0
2403 -173 -233 0
173 233 2403 0
174 -234 -2404 0
234 -174 -2404 0
2404 -174 -234 0
174 234 2404 0
175 -235 -2405 0
235 -175 -2405 0
2405 -175 -235 0
175 235 2405 0
-2401 -2402 -2403 -2404 -2405 0
176 -246 -2406 0
246 -176 -2406 0
2406 -176 -246 0
176 246 2406 0
-242 172 -2407 0
-172 242 -2407 0
2407 -172 -242 0
172 242 2407 0
173 -243 -2408 0
243 -173 -2408 0
2408 -173 -243 0
173 243 2408 0
174 -244 -2409 0
244 -174 -2409 0
2409 -174 -244 0
174 244 2409 0
175 -245 -2410 0
245 -175 -2410 0
2410 -175 -245 0
175 245 2410 0
-2406 -2407 -2408 -2409 -2410 0
186 -6 -2411 0
6 -186 -2411 0
-6 -186 2411 0
6 186 2411 0
182 -5 -2412 0
-182 5 -2412 0
-182 -5 2412 0
5 182 2412 0
183 -4 -2413 0
4 -183 -2413 0
-4 -183 2413 0
4 183 2413 0
184 -3 -2414 0
3 -184 -2414 0
-3 -184 2414 0
3 184 2414 0
185 -2 -2415 0
2 -185 -2415 0
-2 -185 2415 0
2 185 2415 0
-2411 -2412 -2413 -2414 -2415 0
186 -16 -2416 0
16 -186 -2416 0
-16 -186 2416 0
16 186 2416 0
-12 182 -2417 0
-182 12 -2417 0
-12 -182 2417 0
12 182 2417 0
183 -13 -2418 0
13 -183 -2418 0
-13 -183 2418 0
13 183 2418 0
184 -14 -2419 0
14 -184 -2419 0
-14 -184 2419 0
14 184 2419 0
185 -15 -2420 0
15 -185 -2420 0
-15 -185 2420 0
15 185 2420 0
-2416 -2417 -2418 -2419 -2420 0
186 -26 -2421 0
26 -186 -2421 0
-26 -186 2421 0
26 186 2421 0
-22 182 -2422 0
-182 22 -2422 0
-22 -182 2422 0
22 182 2422 0
183 -23 -2423 0
23 -183 -2423 0
-23 -183 2423 0
23 183 2423 0
184 -24 -2424 0
24 -184 -2424 0
-24 -184 2424 0
24 184 2424 0
185 -25 -2425 0
25 -185 -2425 0
-25 -185 2425 0
25 185 2425 0
-2421 -2422 -2423 -2424 -2425 0
186 -36 -2426 0
36 -186 -2426 0
-36 -186 2426 0
36 186 2426 0
-32 182 -2427 0
-182 32 -2427 0
-32 -182 2427 0
32 182 2427 0
183 -33 -2428 0
33 -183 -2428 0
-33 -183 2428 0
33 183 2428 0
184 -34 -2429 0
34 -184 -2429 0
-34 -184 2429 0
34 184 2429 0
185 -35 -2430 0
35 -185 -2430 0
-35 -185 2430 0
35 185 2430 0
-2426 -2427 -2428 -2429 -2430 0
186 -46 -2431 0
46 -186 -2431 0
-46 -186 2431 0
46 186 2431 0
-42 182 -2432 0
-182 42 -2432 0
-42 -182 2432 0
42 182 2432 0
183 -43 -2433 0
43 -183 -2433 0
-43 -183 2433 0
43 183 2433 0
184 -44 -2434 0
44 -184 -2434 0
-44 -184 2434 0
44 184 2434 0
185 -45 -2435 0
45 -185 -2435 0
-45 -185 2435 0
45 185 2435 0
-2431 -2432 -2433 -2434 -2435 0
186 -56 -2436 0
56 -186 -2436 0
-56 -186 2436 0
56 186 2436 0
-52 182 -2437 0
-182 52 -2437 0
-52 -182 2437 0
52 182 2437 0
183 -53 -2438 0
53 -183 -2438 0
-53 -183 2438 0
53 183 2438 0
184 -54 -2439 0
54 -184 -2439 0
-54 -184 2439 0
54 184 2439 0
185 -55 -2440 0
55 -185 -2440 0
-55 -185 2440 0
55 185 2440 0
-2436 -2437 -2438 -2439 -2440 0
186 -66 -2441 0
66 -186 -2441 0
-66 -186 2441 0
66 186 2441 0
-62 182 -2442 0
-182 62 -2442 0
-62 -182 2442 0
62 182 2442 0
183 -63 -2443 0
63 -183 -2443 0
-63 -183 2443 0
63 183 2443 0
184 -64 -2444 0
64 -184 -2444 0
-64 -184 2444 0
64 184 2444 0
185 -65 -2445 0
65 -185 -2445 0
-65 -185 2445 0
65 185 2445 0
-2441 -2442 -2443 -2444 -2445 0
186 -76 -2446 0
76 -186 -2446 0
-76 -186 2446 0
76 186 2446 0
-72 182 -2447 0
-182 72 -2447 0
-72 -182 2447 0
72 182 2447 0
183 -73 -2448 0
73 -183 -2448 0
-73 -183 2448 0
73 183 2448 0
184 -74 -2449 0
74 -184 -2449 0
-74 -184 2449 0
74 184 2449 0
185 -75 -2450 0
75 -185 -2450 0
-75 -185 2450 0
75 185 2450 0
-2446 -2447 -2448 -2449 -2450 0
186 -86 -2451 0
86 -186 -2451 0
-86 -186 2451 0
86 186 2451 0
-82 182 -2452 0
-182 82 -2452 0
-82 -182 2452 0
82 182 2452 0
183 -83 -2453 0
83 -183 -2453 0
-83 -183 2453 0
83 183 2453 0
184 -84 -2454 0
84 -184 -2454 0
-84 -184 2454 0
84 184 2454 0
185 -85 -2455 0
85 -185 -2455 0
-85 -185 2455 0
85 185 2455 0
-2451 -2452 -2453 -2454 -2455 0
186 -96 -2456 0
96 -186 -2456 0
-96 -186 2456 0
96 186 2456 0
-92 182 -2457 0
-182 92 -2457 0
-92 -182 2457 0
92 182 2457 0
183 -93 -2458 0
93 -183 -2458 0
-93 -183 2458 0
93 183 2458 0
184 -94 -2459 0
94 -184 -2459 0
-94 -184 2459 0
94 184 2459 0
185 -95 -2460 0
95 -185 -2460 0
-95 -185 2460 0
95 185 2460 0
-2456 -2457 -2458 -2459 -2460 0
186 -106 -2461 0
106 -186 -2461 0
-106 -186 2461 0
106 186 2461 0
-102 182 -2462 0
-182 102 -2462 0
-102 -182 2462 0
102 182 2462 0
183 -103 -2463 0
103 -183 -2463 0
-103 -183 2463 0
103 183 2463 0
184 -104 -2464 0
104 -184 -2464 0
-104 -184 2464 0
104 184 2464 0
185 -105 -2465 0
105 -185 -2465 0
-105 -185 2465 0
105 185 2465 0
-2461 -2462 -2463 -2464 -2465 0
186 -116 -2466 0
116 -186 -2466 0
-116 -186 2466 0
116 186 2466 0
-112 182 -2467 0
-182 112 -2467 0
-112 -182 2467 0
112 182 2467 0
183 -113 -2468 0
113 -183 -2468 0
-113 -183 2468 0
113 183 2468 0
184 -114 -2469 0
114 -184 -2469 0
-114 -184 2469 0
114 184 2469 0
185 -115 -2470 0
115 -185 -2470 0
-115 -185 2470 0
115 185 2470 0
-2466 -2467 -2468 -2469 -2470 0
186 -126 -2471 0
126 -186 -2471 0
-126 -186 2471 0
126 186 2471 0
-122 182 -2472 0
-182 122 -2472 0
-122 -182 2472 0
122 182 2472 0
183 -123 -2473 0
123 -183 -2473 0
-123 -183 2473 0
123 183 2473 0
184 -124 -2474 0
124 -184 -2474 0
-124 -184 2474 0
124 184 2474 0
185 -125 -2475 0
125 -185 -2475 0
-125 -185 2475 0
125 185 2475 0
-2471 -2472 -2473 -2474 -2475 0
186 -136 -2476 0
136 -186 -2476 0
-136 -186 2476 0
136 186 2476 0
-132 182 -2477 0
-182 132 -2477 0
-132 -182 2477 0
132 182 2477 0
183 -133 -2478 0
133 -183 -2478 0
-133 -183 2478 0
133 183 2478 0
184 -134 -2479 0
134 -184 -2479 0
-134 -184 2479 0
134 184 2479 0
185 -135 -2480 0
135 -185 -2480 0
-135 -185 2480 0
135 185 2480 0
-2476 -2477 -2478 -2479 -2480 0
186 -146 -2481 0
146 -186 -2481 0
-146 -186 2481 0
146 186 2481 0
-142 182 -2482 0
-182 142 -2482 0
-142 -182 2482 0
142 182 2482 0
183 -143 -2483 0
143 -183 -2483 0
-143 -183 2483 0
143 183 2483 0
184 -144 -2484 0
144 -184 -2484 0
-144 -184 2484 0
144 184 2484 0
185 -145 -2485 0
145 -185 -2485 0
-145 -185 2485 0
145 185 2485 0
-2481 -2482 -2483 -2484 -2485 0
186 -156 -2486 0
156 -186 -2486 0
-156 -186 2486 0
156 186 2486 0
-152 182 -2487 0
-182 152 -2487 0
-152 -182 2487 0
152 182 2487 0
183 -153 -2488 0
153 -183 -2488 0
-153 -183 2488 0
153 183 2488 0
184 -154 -2489 0
154 -184 -2489 0
-154 -184 2489 0
154 184 2489 0
185 -155 -2490 0
155 -185 -2490 0
-155 -185 2490 0
155 185 2490 0
-2486 -2487 -2488 -2489 -2490 0
186 -166 -2491 0
166 -186 -2491 0
-166 -186 2491 0
166 186 2491 0
-162 182 -2492 0
-182 162 -2492 0
-162 -182 2492 0
162 182 2492 0
183 -163 -2493 0
163 -183 -2493 0
-163 -183 2493 0
163 183 2493 0
184 -164 -2494 0
164 -184 -2494 0
-164 -184 2494 0
164 184 2494 0
185 -165 -2495 0
165 -185 -2495 0
-165 -185 2495 0
165 185 2495 0
-2491 -2492 -2493 -2494 -2495 0
186 -176 -2496 0
176 -186 -2496 0
-176 -186 2496 0
176 186 2496 0
-172 182 -2497 0
-182 172 -2497 0
-172 -182 2497 0
172 182 2497 0
183 -173 -2498 0
173 -183 -2498 0
-173 -183 2498 0
173 183 2498 0
184 -174 -2499 0
174 -184 -2499 0
-174 -184 2499 0
174 184 2499 0
185 -175 -2500 0
175 -185 -2500 0
-175 -185 2500 0
175 185 2500 0
-2496 -2497 -2498 -2499 -2500 0
186 -196 -2501 0
196 -186 -2501 0
2501 -186 -196 0
186 196 2501 0
-192 182 -2502 0
-182 192 -2502 0
2502 -182 -192 0
182 192 2502 0
183 -193 -2503 0
193 -183 -2503 0
2503 -183 -193 0
183 193 2503 0
184 -194 -2504 0
194 -184 -2504 0
2504 -184 -194 0
184 194 2504 0
185 -195 -2505 0
195 -185 -2505 0
2505 -185 -195 0
185 195 2505 0
-2501 -2502 -2503 -2504 -2505 0
186 -206 -2506 0
206 -186 -2506 0
2506 -186 -206 0
186 206 2506 0
-202 182 -2507 0
-182 202 -2507 0
2507 -182 -202 0
182 202 2507 0
183 -203 -2508 0
203 -183 -2508 0
2508 -183 -203 0
183 203 2508 0
184 -204 -2509 0
204 -184 -2509 0
2509 -184 -204 0
184 204 2509 0
185 -205 -2510 0
205 -185 -2510 0
2510 -185 -205 0
185 205 2510 0
-2506 -2507 -2508 -2509 -2510 0
186 -216 -2511 0
216 -186 -2511 0
2511 -186 -216 0
186 216 2511 0
-212 182 -2512 0
-182 212 -2512 0
2512 -182 -212 0
182 212 2512 0
183 -213 -2513 0
213 -183 -2513 0
2513 -183 -213 0
183 213 2513 0
184 -214 -2514 0
214 -184 -2514 0
2514 -184 -214 0
184 214 2514 0
185 -215 -2515 0
215 -185 -2515 0
2515 -185 -215 0
185 215 2515 0
-2511 -2512 -2513 -2514 -2515 0
186 -226 -2516 0
226 -186 -2516 0
2516 -186 -226 0
186 226 2516 0
-222 182 -2517 0
-182 222 -2517 0
2517 -182 -222 0
182 222 2517 0
183 -223 -2518 0
223 -183 -2518 0
2518 -183 -223 0
183 223 2518 0
184 -224 -2519 0
224 -184 -2519 0
2519 -184 -224 0
184 224 2519 0
185 -225 -2520 0
225 -185 -2520 0
2520 -185 -225 0
185 225 2520 0
-2516 -2517 -2518 -2519 -2520 0
186 -236 -2521 0
236 -186 -2521 0
2521 -186 -236 0
186 236 2521 0
-232 182 -2522 0
-182 232 -2522 0
2522 -182 -232 0
182 232 2522 0
183 -233 -2523 0
233 -183 -2523 0
2523 -183 -233 0
183 233 2523 0
184 -234 -2524 0
234 -184 -2524 0
2524 -184 -234 0
184 234 2524 0
185 -235 -2525 0
235 -185 -2525 0
2525 -185 -235 0
185 235 2525 0
-2521 -2522 -2523 -2524 -2525 0
186 -246 -2526 0
246 -186 -2526 0
2526 -186 -246 0
186 246 2526 0
-242 182 -2527 0
-182 242 -2527 0
2527 -182 -242 0
182 242 2527 0
183 -243 -2528 0
243 -183 -2528 0
2528 -183 -243 0
183 243 2528 0
184 -244 -2529 0
244 -184 -2529 0
2529 -184 -244 0
184 244 2529 0
185 -245 -2530 0
245 -185 -2530 0
2530 -185 -245 0
185 245 2530 0
-2526 -2527 -2528 -2529 -2530 0
196 -6 -2531 0
6 -196 -2531 0
-6 -196 2531 0
6 196 2531 0
192 -5 -2532 0
-192 5 -2532 0
-192 -5 2532 0
5 192 2532 0
193 -4 -2533 0
4 -193 -2533 0
-4 -193 2533 0
4 193 2533 0
194 -3 -2534 0
3 -194 -2534 0
-3 -194 2534 0
3 194 2534 0
195 -2 -2535 0
2 -195 -2535 0
-2 -195 2535 0
2 195 2535 0
-2531 -2532 -2533 -2534 -2535 0
196 -16 -2536 0
16 -196 -2536 0
-16 -196 2536 0
16 196 2536 0
-12 192 -2537 0
-192 12 -2537 0
-12 -192 2537 0
12 192 2537 0
193 -13 -2538 0
13 -193 -2538 0
-13 -193 2538 0
13 193 2538 0
194 -14 -2539 0
14 -194 -2539 0
-14 -194 2539 0
14 194 2539 0
195 -15 -2540 0
15 -195 -2540 0
-15 -195 2540 0
15 195 2540 0
-2536 -2537 -2538 -2539 -2540 0
196 -26 -2541 0
26 -196 -2541 0
-26 -196 2541 0
26 196 2541 0
-22 192 -2542 0
-192 22 -2542 0
-22 -192 2542 0
22 192 2542 0
193 -23 -2543 0
23 -193 -2543 0
-23 -193 2543 0
23 193 2543 0
194 -24 -2544 0
24 -194 -2544 0
-24 -194 2544 0
24 194 2544 0
195 -25 -2545 0
25 -195 -2545 0
-25 -195 2545 0
25 195 2545 0
-2541 -2542 -2543 -2544 -2545 0
196 -36 -2546 0
36 -196 -2546 0
-36 -196 2546 0
36 196 2546 0
-32 192 -2547 0
-192 32 -2547 0
-32 -192 2547 0
32 192 2547 0
193 -33 -2548 0
33 -193 -2548 0
-33 -193 2548 0
33 193 2548 0
194 -34 -2549 0
34 -194 -2549 0
-34 -194 2549 0
34 194 2549 0
195 -35 -2550 0
35 -195 -2550 0
-35 -195 2550 0
35 195 2550 0
-2546 -2547 -2548 -2549 -2550 0
196 -46 -2551 0
46 -196 -2551 0
-46 -196 2551 0
46 196 2551 0
-42 192 -2552 0
-192 42 -2552 0
-42 -192 2552 0
42 192 2552 0
193 -43 -2553 0
43 -193 -2553 0
-43 -193 2553 0
43 193 2553 0
194 -44 -2554 0
44 -194 -2554 0
-44 -194 2554 0
44 194 2554 0
195 -45 -2555 0
45 -195 -2555 0
-45 -195 2555 0
45 195 2555 0
-2551 -2552 -2553 -2554 -2555 0
196 -56 -2556 0
56 -196 -2556 0
-56 -196 2556 0
56 196 2556 0
-52 192 -2557 0
-192 52 -2557 0
-52 -192 2557 0
52 192 2557 0
193 -53 -2558 0
53 -193 -2558 0
-53 -193 2558 0
53 193 2558 0
194 -54 -2559 0
54 -194 -2559 0
-54 -194 2559 0
54 194 2559 0
195 -55 -2560 0
55 -195 -2560 0
-55 -195 2560 0
55 195 2560 0
-2556 -2557 -2558 -2559 -2560 0
196 -66 -2561 0
66 -196 -2561 0
-66 -196 2561 0
66 196 2561 0
-62 192 -2562 0
-192 62 -2562 0
-62 -192 2562 0
62 192 2562 0
193 -63 -2563 0
63 -193 -2563 0
-63 -193 2563 0
63 193 2563 0
194 -64 -2564 0
64 -194 -2564 0
-64 -194 2564 0
64 194 2564 0
195 -65 -2565 0
65 -195 -2565 0
-65 -195 2565 0
65 195 2565 0
-2561 -2562 -2563 -2564 -2565 0
196 -76 -2566 0
76 -196 -2566 0
-76 -196 2566 0
76 196 2566 0
-72 192 -2567 0
-192 72 -2567 0
-72 -192 2567 0
72 192 2567 0
193 -73 -2568 0
73 -193 -2568 0
-73 -193 2568 0
73 193 2568 0
194 -74 -2569 0
74 -194 -2569 0
-74 -194 2569 0
74 194 2569 0
195 -75 -2570 0
75 -195 -2570 0
-75 -195 2570 0
75 195 2570 0
-2566 -2567 -2568 -2569 -2570 0
196 -86 -2571 0
86 -196 -2571 0
-86 -196 2571 0
86 196 2571 0
-82 192 -2572 0
-192 82 -2572 0
-82 -192 2572 0
82 192 2572 0
193 -83 -2573 0
83 -193 -2573 0
-83 -193 2573 0
83 193 2573 0
194 -84 -2574 0
84 -194 -2574 0
-84 -194 2574 0
84 194 2574 0
195 -85 -2575 0
85 -195 -2575 0
-85 -195 2575 0
85 195 2575 0
-2571 -2572 -2573 -2574 -2575 0
196 -96 -2576 0
96 -196 -2576 0
-96 -196 2576 0
96 196 2576 0
-92 192 -2577 0
-192 92 -2577 0
-92 -192 2577 0
92 192 2577 0
193 -93 -2578 0
93 -193 -2578 0
-93 -193 2578 0
93 193 2578 0
194 -94 -2579 0
94 -194 -2579 0
-94 -194 2579 0
94 194 2579 0
195 -95 -2580 0
95 -195 -2580 0
-95 -195 2580 0
95 195 2580 0
-2576 -2577 -2578 -2579 -2580 0
196 -106 -2581 0
106 -196 -2581 0
-106 -196 2581 0
106 196 2581 0
-102 192 -2582 0
-192 102 -2582 0
-102 -192 2582 0
102 192 2582 0
193 -103 -2583 0
103 -193 -2583 0
-103 -193 2583 0
103 193 2583 0
194 -104 -2584 0
104 -194 -2584 0
-104 -194 2584 0
104 194 2584 0
195 -105 -2585 0
105 -195 -2585 0
-105 -195 2585 0
105 195 2585 0
-2581 -2582 -2583 -2584 -2585 0
196 -116 -2586 0
116 -196 -2586 0
-116 -196 2586 0
116 196 2586 0
-112 192 -2587 0
-192 112 -2587 0
-112 -192 2587 0
112 192 2587 0
193 -113 -2588 0
113 -193 -2588 0
-113 -193 2588 0
113 193 2588 0
194 -114 -2589 0
114 -194 -2589 0
-114 -194 2589 0
114 194 2589 0
195 -115 -2590 0
115 -195 -2590 0
-115 -195 2590 0
115 195 2590 0
-2586 -2587 -2588 -2589 -2590 0
196 -126 -2591 0
126 -196 -2591 0
-126 -196 2591 0
126 196 2591 0
-122 192 -2592 0
-192 122 -2592 0
-122 -192 2592 0
122 192 2592 0
193 -123 -2593 0
123 -193 -2593 0
-123 -193 2593 0
123 193 2593 0
194 -124 -2594 0
124 -194 -2594 0
-124 -194 2594 0
124 194 2594 0
195 -125 -2595 0
125 -195 -2595 0
-125 -195 2595 0
125 195 2595 0
-2591 -2592 -2593 -2594 -2595 0
196 -136 -2596 0
136 -196 -2596 0
-136 -196 2596 0
136 196 2596 0
-132 192 -2597 0
-192 132 -2597 0
-132 -192 2597 0
132 192 2597 0
193 -133 -2598 0
133 -193 -2598 0
-133 -193 2598 0
133 193 2598 0
194 -134 -2599 0
134 -194 -2599 0
-134 -194 2599 0
134 194 2599 0
195 -135 -2600 0
135 -195 -2600 0
-135 -195 2600 0
135 195 2600 0
-2596 -2597 -2598 -2599 -2600 0
196 -146 -2601 0
146 -196 -2601 0
-146 -196 2601 0
146 196 2601 0
-142 192 -2602 0
-192 142 -2602 0
-142 -192 2602 0
142 192 2602 0
193 -143 -2603 0
143 -193 -2603 0
-143 -193 2603 0
143 193 2603 0
194 -144 -2604 0
144 -194 -2604 0
-144 -194 2604 0
144 194 2604 0
195 -145 -2605 0
145 -195 -2605 0
-145 -195 2605 0
145 195 2605 0
-2601 -2602 -2603 -2604 -2605 0
196 -156 -2606 0
156 -196 -2606 0
-156 -196 2606 0
156 196 2606 0
-152 192 -2607 0
-192 152 -2607 0
-152 -192 2607 0
152 192 2607 0
193 -153 -2608 0
153 -193 -2608 0
-153 -193 2608 0
153 193 2608 0
194 -154 -2609 0
154 -194 -2609 0
-154 -194 2609 0
154 194 2609 0
195 -155 -2610 0
155 -195 -2610 0
-155 -195 2610 0
155 195 2610 0
-2606 -2607 -2608 -2609 -2610 0
196 -166 -2611 0
166 -196 -2611 0
-166 -196 2611 0
166 196 2611 0
-162 192 -2612 0
-192 162 -2612 0
-162 -192 2612 0
162 192 2612 0
193 -163 -2613 0
163 -193 -2613 0
-163 -193 2613 0
163 193 2613 0
194 -164 -2614 0
164 -194 -2614 0
-164 -194 2614 0
164 194 2614 0
195 -165 -2615 0
165 -195 -2615 0
-165 -195 2615 0
165 195 2615 0
-2611 -2612 -2613 -2614 -2615 0
196 -176 -2616 0
176 -196 -2616 0
-176 -196 2616 0
176 196 2616 0
-172 192 -2617 0
-192 172 -2617 0
-172 -192 2617 0
172 192 2617 0
193 -173 -2618 0
173 -193 -2618 0
-173 -193 2618 0
173 193 2618 0
194 -174 -2619 0
174 -194 -2619 0
-174 -194 2619 0
174 194 2619 0
195 -175 -2620 0
175 -195 -2620 0
-175 -195 2620 0
175 195 2620 0
-2616 -2617 -2618 -2619 -2620 0
196 -186 -2621 0
186 -196 -2621 0
-186 -196 2621 0
186 196 2621 0
-182 192 -2622 0
-192 182 -2622 0
-182 -192 2622 0
182 192 2622 0
193 -183 -2623 0
183 -193 -2623 0
-183 -193 2623 0
183 193 2623 0
194 -184 -2624 0
184 -194 -2624 0
-184 -194 2624 0
184 194 2624 0
195 -185 -2625 0
185 -195 -2625 0
-185 -195 2625 0
185 195 2625 0
-2621 -2622 -2623 -2624 -2625 0
196 -206 -2626 0
206 -196 -2626 0
2626 -196 -206 0
196 206 2626 0
-202 192 -2627 0
-192 202 -2627 0
2627 -192 -202 0
192 202 2627 0
193 -203 -2628 0
203 -193 -2628 0
2628 -193 -203 0
193 203 2628 0
194 -204 -2629 0
204 -194 -2629 0
2629 -194 -204 0
194 204 2629 0
195 -205 -2630 0
205 -195 -2630 0
2630 -195 -205 0
195 205 2630 0
-2626 -2627 -2628 -2629 -2630 0
196 -216 -2631 0
216 -196 -2631 0
2631 -196 -216 0
196 216 2631 0
-212 192 -2632 0
-192 212 -2632 0
2632 -192 -212 0
192 212 2632 0
193 -213 -2633 0
213 -193 -2633 0
2633 -193 -213 0
193 213 2633 0
194 -214 -2634 0
214 -194 -2634 0
2634 -194 -214 0
194 214 2634 0
195 -215 -2635 0
215 -195 -2635 0
2635 -195 -215 0
195 215 2635 0
-2631 -2632 -2633 -2634 -2635 0
196 -226 -2636 0
226 -196 -2636 0
2636 -196 -226 0
196 226 2636 0
-222 192 -2637 0
-192 222 -2637 0
2637 -192 -222 0
192 222 2637 0
193 -223 -2638 0
223 -193 -2638 0
2638 -193 -223 0
193 223 2638 0
194 -224 -2639 0
224 -194 -2639 0
2639 -194 -224 0
194 224 2639 0
195 -225 -2640 0
225 -195 -2640 0
2640 -195 -225 0
195 225 2640 0
-2636 -2637 -2638 -2639 -2640 0
196 -236 -2641 0
236 -196 -2641 0
2641 -196 -236 0
196 236 2641 0
-232 192 -2642 0
-192 232 -2642 0
2642 -192 -232 0
192 232 2642 0
193 -233 -2643 0
233 -193 -2643 0
2643 -193 -233 0
193 233 2643 0
194 -234 -2644 0
234 -194 -2644 0
2644 -194 -234 0
194 234 2644 0
195 -235 -2645 0
235 -195 -2645 0
2645 -195 -235 0
195 235 2645 0
-2641 -2642 -2643 -2644 -2645 0
196 -246 -2646 0
246 -196 -2646 0
2646 -196 -246 0
196 246 2646 0
-242 192 -2647 0
-192 242 -2647 0
2647 -192 -242 0
192 242 2647 0
193 -243 -2648 0
243 -193 -2648 0
2648 -193 -243 0
193 243 2648 0
194 -244 -2649 0
244 -194 -2649 0
2649 -194 -244 0
194 244 2649 0
195 -245 -2650 0
245 -195 -2650 0
2650 -195 -245 0
195 245 2650 0
-2646 -2647 -2648 -2649 -2650 0
206 -6 -2651 0
6 -206 -2651 0
-6 -206 2651 0
6 206 2651 0
202 -5 -2652 0
-202 5 -2652 0
-202 -5 2652 0
5 202 2652 0
203 -4 -2653 0
4 -203 -2653 0
-4 -203 2653 0
4 203 2653 0
204 -3 -2654 0
3 -204 -2654 0
-3 -204 2654 0
3 204 2654 0
205 -2 -2655 0
2 -205 -2655 0
-2 -205 2655 0
2 205 2655 0
-2651 -2652 -2653 -2654 -2655 0
206 -16 -2656 0
16 -206 -2656 0
-16 -206 2656 0
16 206 2656 0
-12 202 -2657 0
-202 12 -2657 0
-12 -202 2657 0
12 202 2657 0
203 -13 -2658 0
13 -203 -2658 0
-13 -203 2658 0
13 203 2658 0
204 -14 -2659 0
14 -204 -2659 0
-14 -204 2659 0
14 204 2659 0
205 -15 -2660 0
15 -205 -2660 0
-15 -205 2660 0
15 205 2660 0
-2656 -2657 -2658 -2659 -2660 0
206 -26 -2661 0
26 -206 -2661 0
-26 -206 2661 0
26 206 2661 0
-22 202 -2662 0
-202 22 -2662 0
-22 -202 2662 0
22 202 2662 0
203 -23 -2663 0
23 -203 -2663 0
-23 -203 2663 0
23 203 2663 0
204 -24 -2664 0
24 -204 -2664 0
-24 -204 2664 0
24 204 2664 0
205 -25 -2665 0
25 -205 -2665 0
-25 -205 2665 0
25 205 2665 0
-2661 -2662 -2663 -2664 -2665 0
206 -36 -2666 0
36 -206 -2666 0
-36 -206 2666 0
36 206 2666 0
-32 202 -2667 0
-202 32 -2667 0
-32 -202 2667 0
32 202 2667 0
203 -33 -2668 0
33 -203 -2668 0
-33 -203 2668 0
33 203 2668 0
204 -34 -2669 0
34 -204 -2669 0
-34 -204 2669 0
34 204 2669 0
205 -35 -2670 0
35 -205 -2670 0
-35 -205 2670 0
35 205 2670 0
-2666 -2667 -2668 -2669 -2670 0
206 -46 -2671 0
46 -206 -2671 0
-46 -206 2671 0
46 206 2671 0
-42 202 -2672 0
-202 42 -2672 0
-42 -202 2672 0
42 202 2672 0
203 -43 -2673 0
43 -203 -2673 0
-43 -203 2673 0
43 203 2673 0
204 -44 -2674 0
44 -204 -2674 0
-44 -204 2674 0
44 204 2674 0
205 -45 -2675 0
45 -205 -2675 0
-45 -205 2675 0
45 205 2675 0
-2671 -2672 -2673 -2674 -2675 0
206 -56 -2676 0
56 -206 -2676 0
-56 -206 2676 0
56 206 2676 0
-52 202 -2677 0
-202 52 -2677 0
-52 -202 2677 0
52 202 2677 0
203 -53 -2678 0
53 -203 -2678 0
-53 -203 2678 0
53 203 2678 0
204 -54 -2679 0
54 -204 -2679 0
-54 -204 2679 0
54 204 2679 0
205 -55 -2680 0
55 -205 -2680 0
-55 -205 2680 0
55 205 2680 0
-2676 -2677 -2678 -2679 -2680 0
206 -66 -2681 0
66 -206 -2681 0
-66 -206 2681 0
66 206 2681 0
-62 202 -2682 0
-202 62 -2682 0
-62 -202 2682 0
62 202 2682 0
203 -63 -2683 0
63 -203 -2683 0
-63 -203 2683 0
63 203 2683 0
204 -64 -2684 0
64 -204 -2684 0
-64 -204 2684 0
64 204 2684 0
205 -65 -2685 0
65 -205 -2685 0
-65 -205 2685 0
65 205 2685 0
-2681 -2682 -2683 -2684 -2685 0
206 -76 -2686 0
76 -206 -2686 0
-76 -206 2686 0
76 206 2686 0
-72 202 -2687 0
-202 72 -2687 0
-72 -202 2687 0
72 202 2687 0
203 -73 -2688 0
73 -203 -2688 0
-73 -203 2688 0
73 203 2688 0
204 -74 -2689 0
74 -204 -2689 0
-74 -204 2689 0
74 204 2689 0
205 -75 -2690 0
75 -205 -2690 0
-75 -205 2690 0
75 205 2690 0
-2686 -2687 -2688 -2689 -2690 0
206 -86 -2691 0
86 -206 -2691 0
-86 -206 2691 0
86 206 2691 0
-82 202 -2692 0
-202 82 -2692 0
-82 -202 2692 0
82 202 2692 0
203 -83 -2693 0
83 -203 -2693 0
-83 -203 2693 0
83 203 2693 0
204 -84 -2694 0
84 -204 -2694 0
-84 -204 2694 0
84 204 2694 0
205 -85 -2695 0
85 -205 -2695 0
-85 -205 2695 0
85 205 2695 0
-2691 -2692 -2693 -2694 -2695 0
206 -96 -2696 0
96 -206 -2696 0
-96 -206 2696 0
96 206 2696 0
-92 202 -2697 0
-202 92 -2697 0
-92 -202 2697 0
92 202 2697 0
203 -93 -2698 0
93 -203 -2698 0
-93 -203 2698 0
93 203 2698 0
204 -94 -2699 0
94 -204 -2699 0
-94 -204 2699 0
94 204 2699 0
205 -95 -2700 0
95 -205 -2700 0
-95 -205 2700 0
95 205 2700 0
-2696 -2697 -2698 -2699 -2700 0
206 -106 -2701 0
106 -206 -2701 0
-106 -206 2701 0
106 206 2701 0
-102 202 -2702 0
-202 102 -2702 0
-102 -202 2702 0
102 202 2702 0
203 -103 -2703 0
103 -203 -2703 0
-103 -203 2703 0
103 203 2703 0
204 -104 -2704 0
104 -204 -2704 0
-104 -204 2704 0
104 204 2704 0
205 -105 -2705 0
105 -205 -2705 0
-105 -205 2705 0
105 205 2705 0
-2701 -2702 -2703 -2704 -2705 0
206 -116 -2706 0
116 -206 -2706 0
-116 -206 2706 0
116 206 2706 0
-112 202 -2707 0
-202 112 -2707 0
-112 -202 2707 0
112 202 2707 0
203 -113 -2708 0
113 -203 -2708 0
-113 -203 2708 0
113 203 2708 0
204 -114 -2709 0
114 -204 -2709 0
-114 -204 2709 0
114 204 2709 0
205 -115 -2710 0
115 -205 -2710 0
-115 -205 2710 0
115 205 2710 0
-2706 -2707 -2708 -2709 -2710 0
206 -126 -2711 0
126 -206 -2711 0
-126 -206 2711 0
126 206 2711 0
-122 202 -2712 0
-202 122 -2712 0
-122 -202 2712 0
122 202 2712 0
203 -123 -2713 0
123 -203 -2713 0
-123 -203 2713 0
123 203 2713 0
204 -124 -2714 0
124 -204 -2714 0
-124 -204 2714 0
124 204 2714 0
205 -125 -2715 0
125 -205 -2715 0
-125 -205 2715 0
125 205 2715 0
-2711 -2712 -2713 -2714 -2715 0
206 -136 -2716 0
136 -206 -2716 0
-136 -206 2716 0
136 206 2716 0
-132 202 -2717 0
-202 132 -2717 0
-132 -202 2717 0
132 202 2717 0
203 -133 -2718 0
133 -203 -2718 0
-133 -203 2718 0
133 203 2718 0
204 -134 -2719 0
134 -204 -2719 0
-134 -204 2719 0
134 204 2719 0
205 -135 -2720 0
135 -205 -2720 0
-135 -205 2720 0
135 205 2720 0
-2716 -2717 -2718 -2719 -2720 0
206 -146 -2721 0
146 -206 -2721 0
-146 -206 2721 0
146 206 2721 0
-142 202 -2722 0
-202 142 -2722 0
-142 -202 2722 0
142 202 2722 0
203 -143 -2723 0
143 -203 -2723 0
-143 -203 2723 0
143 203 2723 0
204 -144 -2724 0
144 -204 -2724 0
-144 -204 2724 0
144 204 2724 0
205 -145 -2725 0
145 -205 -2725 0
-145 -205 2725 0
145 205 2725 0
-2721 -2722 -2723 -2724 -2725 0
206 -156 -2726 0
156 -206 -2726 0
-156 -206 2726 0
156 206 2726 0
-152 202 -2727 0
-202 152 -2727 0
-152 -202 2727 0
152 202 2727 0
203 -153 -2728 0
153 -203 -2728 0
-153 -203 2728 0
153 203 2728 0
204 -154 -2729 0
154 -204 -2729 0
-154 -204 2729 0
154 204 2729 0
205 -155 -2730 0
155 -205 -2730 0
-155 -205 2730 0
155 205 2730 0
-2726 -2727 -2728 -2729 -2730 0
206 -166 -2731 0
166 -206 -2731 0
-166 -206 2731 0
166 206 2731 0
-162 202 -2732 0
-202 162 -2732 0
-162 -202 2732 0
162 202 2732 0
203 -163 -2733 0
163 -203 -2733 0
-163 -203 2733 0
163 203 2733 0
204 -164 -2734 0
164 -204 -2734 0
-164 -204 2734 0
164 204 2734 0
205 -165 -2735 0
165 -205 -2735 0
-165 -205 2735 0
165 205 2735 0
-2731 -2732 -2733 -2734 -2735 0
206 -176 -2736 0
176 -206 -2736 0
-176 -206 2736 0
176 206 2736 0
-172 202 -2737 0
-202 172 -2737 0
-172 -202 2737 0
172 202 2737 0
203 -173 -2738 0
173 -203 -2738 0
-173 -203 2738 0
173 203 2738 0
204 -174 -2739 0
174 -204 -2739 0
-174 -204 2739 0
174 204 2739 0
205 -175 -2740 0
175 -205 -2740 0
-175 -205 2740 0
175 205 2740 0
-2736 -2737 -2738 -2739 -2740 0
206 -186 -2741 0
186 -206 -2741 0
-186 -206 2741 0
186 206 2741 0
-182 202 -2742 0
-202 182 -2742 0
-182 -202 2742 0
182 202 2742 0
203 -183 -2743 0
183 -203 -2743 0
-183 -203 2743 0
183 203 2743 0
204 -184 -2744 0
184 -204 -2744 0
-184 -204 2744 0
184 204 2744 0
205 -185 -2745 0
185 -205 -2745 0
-185 -205 2745 0
185 205 2745 0
-2741 -2742 -2743 -2744 -2745 0
206 -196 -2746 0
196 -206 -2746 0
-196 -206 2746 0
196 206 2746 0
-192 202 -2747 0
-202 192 -2747 0
-192 -202 2747 0
192 202 2747 0
203 -193 -2748 0
193 -203 -2748 0
-193 -203 2748 0
193 203 2748 0
204 -194 -2749 0
194 -204 -2749 0
-194 -204 2749 0
194 204 2749 0
205 -195 -2750 0
195 -205 -2750 0
-195 -205 2750 0
195 205 2750 0
-2746 -2747 -2748 -2749 -2750 0
206 -216 -2751 0
216 -206 -2751 0
2751 -206 -216 0
206 216 2751 0
-212 202 -2752 0
-202 212 -2752 0
2752 -202 -212 0
202 212 2752 0
203 -213 -2753 0
213 -203 -2753 0
2753 -203 -213 0
203 213 2753 0
204 -214 -2754 0
214 -204 -2754 0
2754 -204 -214 0
204 214 2754 0
205 -215 -2755 0
215 -205 -2755 0
2755 -205 -215 0
205 215 2755 0
-2751 -2752 -2753 -2754 -2755 0
206 -226 -2756 0
226 -206 -2756 0
2756 -206 -226 0
206 226 2756 0
-222 202 -2757 0
-202 222 -2757 0
2757 -202 -222 0
202 222 2757 0
203 -223 -2758 0
223 -203 -2758 0
2758 -203 -223 0
203 223 2758 0
204 -224 -2759 0
224 -204 -2759 0
2759 -204 -224 0
204 224 2759 0
205 -225 -2760 0
225 -205 -2760 0
2760 -205 -225 0
205 225 2760 0
-2756 -2757 -2758 -2759 -2760 0
206 -236 -2761 0
236 -206 -2761 0
2761 -206 -236 0
206 236 2761 0
-232 202 -2762 0
-202 232 -2762 0
2762 -202 -232 0
202 232 2762 0
203 -233 -2763 0
233 -203 -2763 0
2763 -203 -233 0
203 233 2763 0
204 -234 -2764 0
234 -204 -2764 0
2764 -204 -234 0
204 234 2764 0
205 -235 -2765 0
235 -205 -2765 0
2765 -205 -235 0
205 235 2765 0
-2761 -2762 -2763 -2764 -2765 0
206 -246 -2766 0
246 -206 -2766 0
2766 -206 -246 0
206 246 2766 0
-242 202 -2767 0
-202 242 -2767 0
2767 -202 -242 0
202 242 2767 0
203 -243 -2768 0
243 -203 -2768 0
2768 -203 -243 0
203 243 2768 0
204 -244 -2769 0
244 -204 -2769 0
2769 -204 -244 0
204 244 2769 0
205 -245 -2770 0
245 -205 -2770 0
2770 -205 -245 0
205 245 2770 0
-2766 -2767 -2768 -2769 -2770 0
216 -6 -2771 0
6 -216 -2771 0
-6 -216 2771 0
6 216 2771 0
212 -5 -2772 0
-212 5 -2772 0
-212 -5 2772 0
5 212 2772 0
213 -4 -2773 0
4 -213 -2773 0
-4 -213 2773 0
4 213 2773 0
214 -3 -2774 0
3 -214 -2774 0
-3 -214 2774 0
3 214 2774 0
215 -2 -2775 0
2 -215 -2775 0
-2 -215 2775 0
2 215 2775 0
-2771 -2772 -2773 -2774 -2775 0
216 -16 -2776 0
16 -216 -2776 0
-16 -216 2776 0
16 216 2776 0
-12 212 -2777 0
-212 12 -2777 0
-12 -212 2777 0
12 212 2777 0
213 -13 -2778 0
13 -213 -2778 0
-13 -213 2778 0
13 213 2778 0
214 -14 -2779 0
14 -214 -2779 0
-14 -214 2779 0
14 214 2779 0
215 -15 -2780 0
15 -215 -2780 0
-15 -215 2780 0
15 215 2780 0
-2776 -2777 -2778 -2779 -2780 0
216 -26 -2781 0
26 -216 -2781 0
-26 -216 2781 0
26 216 2781 0
-22 212 -2782 0
-212 22 -2782 0
-22 -212 2782 0
22 212 2782 0
213 -23 -2783 0
23 -213 -2783 0
-23 -213 2783 0
23 213 2783 0
214 -24 -2784 0
24 -214 -2784 0
-24 -214 2784 0
24 214 2784 0
215 -25 -2785 0
25 -215 -2785 0
-25 -215 2785 0
25 215 2785 0
-2781 -2782 -2783 -2784 -2785 0
216 -36 -2786 0
36 -216 -2786 0
-36 -216 2786 0
36 216 2786 0
-32 212 -2787 0
-212 32 -2787 0
-32 -212 2787 0
32 212 2787 0
213 -33 -2788 0
33 -213 -2788 0
-33 -213 2788 0
33 213 2788 0
214 -34 -2789 0
34 -214 -2789 0
-34 -214 2789 0
34 214 2789 0
215 -35 -2790 0
35 -215 -2790 0
-35 -215 2790 0
35 215 2790 0
-2786 -2787 -2788 -2789 -2790 0
216 -46 -2791 0
46 -216 -2791 0
-46 -216 2791 0
46 216 2791 0
-42 212 -2792 0
-212 42 -2792 0
-42 -212 2792 0
42 212 2792 0
213 -43 -2793 0
43 -213 -2793 0
-43 -213 2793 0
43 213 2793 0
214 -44 -2794 0
44 -214 -2794 0
-44 -214 2794 0
44 214 2794 0
215 -45 -2795 0
45 -215 -2795 0
-45 -215 2795 0
45 215 2795 0
-2791 -2792 -2793 -2794 -2795 0
216 -56 -2796 0
56 -216 -2796 0
-56 -216 2796 0
56 216 2796 0
-52 212 -2797 0
-212 52 -2797 0
-52 -212 2797 0
52 212 2797 0
213 -53 -2798 0
53 -213 -2798 0
-53 -213 2798 0
53 213 2798 0
214 -54 -2799 0
54 -214 -2799 0
-54 -214 2799 0
54 214 2799 0
215 -55 -2800 0
55 -215 -2800 0
-55 -215 2800 0
55 215 2800 0
-2796 -2797 -2798 -2799 -2800 0
216 -66 -2801 0
66 -216 -2801 0
-66 -216 2801 0
66 216 2801 0
-62 212 -2802 0
-212 62 -2802 0
-62 -212 2802 0
62 212 2802 0
213 -63 -2803 0
63 -213 -2803 0
-63 -213 2803 0
63 213 2803 0
214 -64 -2804 0
64 -214 -2804 0
-64 -214 2804 0
64 214 2804 0
215 -65 -2805 0
65 -215 -2805 0
-65 -215 2805 0
65 215 2805 0
-2801 -2802 -2803 -2804 -2805 0
216 -76 -2806 0
76 -216 -2806 0
-76 -216 2806 0
76 216 2806 0
-72 212 -2807 0
-212 72 -2807 0
-72 -212 2807 0
72 212 2807 0
213 -73 -2808 0
73 -213 -2808 0
-73 -213 2808 0
73 213 2808 0
214 -74 -2809 0
74 -214 -2809 0
-74 -214 2809 0
74 214 2809 0
215 -75 -2810 0
75 -215 -2810 0
-75 -215 2810 0
75 215 2810 0
-2806 -2807 -2808 -2809 -2810 0
216 -86 -2811 0
86 -216 -2811 0
-86 -216 2811 0
86 216 2811 0
-82 212 -2812 0
-212 82 -2812 0
-82 -212 2812 0
82 212 2812 0
213 -83 -2813 0
83 -213 -2813 0
-83 -213 2813 0
83 213 2813 0
214 -84 -2814 0
84 -214 -2814 0
-84 -214 2814 0
84 214 2814 0
215 -85 -2815 0
85 -215 -2815 0
-85 -215 2815 0
85 215 2815 0
-2811 -2812 -2813 -2814 -2815 0
216 -96 -2816 0
96 -216 -2816 0
-96 -216 2816 0
96 216 2816 0
-92 212 -2817 0
-212 92 -2817 0
-92 -212 2817 0
92 212 2817 0
213 -93 -2818 0
93 -213 -2818 0
-93 -213 2818 0
93 213 2818 0
214 -94 -2819 0
94 -214 -2819 0
-94 -214 2819 0
94 214 2819 0
215 -95 -2820 0
95 -215 -2820 0
-95 -215 2820 0
95 215 2820 0
-2816 -2817 -2818 -2819 -2820 0
216 -106 -2821 0
106 -216 -2821 0
-106 -216 2821 0
106 216 2821 0
-102 212 -2822 0
-212 102 -2822 0
-102 -212 2822 0
102 212 2822 0
213 -103 -2823 0
103 -213 -2823 0
-103 -213 2823 0
103 213 2823 0
214 -104 -2824 0
104 -214 -2824 0
-104 -214 2824 0
104 214 2824 0
215 -105 -2825 0
105 -215 -2825 0
-105 -215 2825 0
105 215 2825 0
-2821 -2822 -2823 -2824 -2825 0
216 -116 -2826 0
116 -216 -2826 0
-116 -216 2826 0
116 216 2826 0
-112 212 -2827 0
-212 112 -2827 0
-112 -212 2827 0
112 212 2827 0
213 -113 -2828 0
113 -213 -2828 0
-113 -213 2828 0
113 213 2828 0
214 -114 -2829 0
114 -214 -2829 0
-114 -214 2829 0
114 214 2829 0
215 -115 -2830 0
115 -215 -2830 0
-115 -215 2830 0
115 215 2830 0
-2826 -2827 -2828 -2829 -2830 0
216 -126 -2831 0
126 -216 -2831 0
-126 -216 2831 0
126 216 2831 0
-122 212 -2832 0
-212 122 -2832 0
-122 -212 2832 0
122 212 2832 0
213 -123 -2833 0
123 -213 -2833 0
-123 -213 2833 0
123 213 2833 0
214 -124 -2834 0
124 -214 -2834 0
-124 -214 2834 0
124 214 2834 0
215 -125 -2835 0
125 -215 -2835 0
-125 -215 2835 0
125 215 2835 0
-2831 -2832 -2833 -2834 -2835 0
216 -136 -2836 0
136 -216 -2836 0
-136 -216 2836 0
136 216 2836 0
-132 212 -2837 0
-212 132 -2837 0
-132 -212 2837 0
132 212 2837 0
213 -133 -2838 0
133 -213 -2838 0
-133 -213 2838 0
133 213 2838 0
214 -134 -2839 0
134 -214 -2839 0
-134 -214 2839 0
134 214 2839 0
215 -135 -2840 0
135 -215 -2840 0
-135 -215 2840 0
135 215 2840 0
-2836 -2837 -2838 -2839 -2840 0
216 -146 -2841 0
146 -216 -2841 0
-146 -216 2841 0
146 216 2841 0
-142 212 -2842 0
-212 142 -2842 0
-142 -212 2842 0
142 212 2842 0
213 -143 -2843 0
143 -213 -2843 0
-143 -213 2843 0
143 213 2843 0
214 -144 -2844 0
144 -214 -2844 0
-144 -214 2844 0
144 214 2844 0
215 -145 -2845 0
145 -215 -2845 0
-145 -215 2845 0
145 215 2845 0
-2841 -2842 -2843 -2844 -2845 0
216 -156 -2846 0
156 -216 -2846 0
-156 -216 2846 0
156 216 2846 0
-152 212 -2847 0
-212 152 -2847 0
-152 -212 2847 0
152 212 2847 0
213 -153 -2848 0
153 -213 -2848 0
-153 -213 2848 0
153 213 2848 0
214 -154 -2849 0
154 -214 -2849 0
-154 -214 2849 0
154 214 2849 0
215 -155 -2850 0
155 -215 -2850 0
-155 -215 2850 0
155 215 2850 0
-2846 -2847 -2848 -2849 -2850 0
216 -166 -2851 0
166 -216 -2851 0
-166 -216 2851 0
166 216 2851 0
-162 212 -2852 0
-212 162 -2852 0
-162 -212 2852 0
162 212 2852 0
213 -163 -2853 0
163 -213 -2853 0
-163 -213 2853 0
163 213 2853 0
214 -164 -2854 0
164 -214 -2854 0
-164 -214 2854 0
164 214 2854 0
215 -165 -2855 0
165 -215 -2855 0
-165 -215 2855 0
165 215 2855 0
-2851 -2852 -2853 -2854 -2855 0
216 -176 -2856 0
176 -216 -2856 0
-176 -216 2856 0
176 216 2856 0
-172 212 -2857 0
-212 172 -2857 0
-172 -212 2857 0
172 212 2857 0
213 -173 -2858 0
173 -213 -2858 0
-173 -213 2858 0
173 213 2858 0
214 -174 -2859 0
174 -214 -2859 0
-174 -214 2859 0
174 214 2859 0
215 -175 -2860 0
175 -215 -2860 0
-175 -215 2860 0
175 215 2860 0
-2856 -2857 -2858 -2859 -2860 0
216 -186 -2861 0
186 -216 -2861 0
-186 -216 2861 0
186 216 2861 0
-182 212 -2862 0
-212 182 -2862 0
-182 -212 2862 0
182 212 2862 0
213 -183 -2863 0
183 -213 -2863 0
-183 -213 2863 0
183 213 2863 0
214 -184 -2864 0
184 -214 -2864 0
-184 -214 2864 0
184 214 2864 0
215 -185 -2865 0
185 -215 -2865 0
-185 -215 2865 0
185 215 2865 0
-2861 -2862 -2863 -2864 -2865 0
216 -196 -2866 0
196 -216 -2866 0
-196 -216 2866 0
196 216 2866 0
-192 212 -2867 0
-212 192 -2867 0
-192 -212 2867 0
192 212 2867 0
213 -193 -2868 0
193 -213 -2868 0
-193 -213 2868 0
193 213 2868 0
214 -194 -2869 0
194 -214 -2869 0
-194 -214 2869 0
194 214 2869 0
215 -195 -2870 0
195 -215 -2870 0
-195 -215 2870 0
195 215 2870 0
-2866 -2867 -2868 -2869 -2870 0
216 -206 -2871 0
206 -216 -2871 0
-206 -216 2871 0
206 216 2871 0
-202 212 -2872 0
-212 202 -2872 0
-202 -212 2872 0
202 212 2872 0
213 -203 -2873 0
203 -213 -2873 0
-203 -213 2873 0
203 213 2873 0
214 -204 -2874 0
204 -214 -2874 0
-204 -214 2874 0
204 214 2874 0
215 -205 -2875 0
205 -215 -2875 0
-205 -215 2875 0
205 215 2875 0
-2871 -2872 -2873 -2874 -2875 0
216 -226 -2876 0
226 -216 -2876 0
2876 -216 -226 0
216 226 2876 0
-222 212 -2877 0
-212 222 -2877 0
2877 -212 -222 0
212 222 2877 0
213 -223 -2878 0
223 -213 -2878 0
2878 -213 -223 0
213 223 2878 0
214 -224 -2879 0
224 -214 -2879 0
2879 -214 -224 0
214 224 2879 0
215 -225 -2880 0
225 -215 -2880 0
2880 -215 -225 0
215 225 2880 0
-2876 -2877 -2878 -2879 -2880 0
216 -236 -2881 0
236 -216 -2881 0
2881 -216 -236 0
216 236 2881 0
-232 212 -2882 0
-212 232 -2882 0
2882 -212 -232 0
212 232 2882 0
213 -233 -2883 0
233 -213 -2883 0
2883 -213 -233 0
213 233 2883 0
214 -234 -2884 0
234 -214 -2884 0
2884 -214 -234 0
214 234 2884 0
215 -235 -2885 0
235 -215 -2885 0
2885 -215 -235 0
215 235 2885 0
-2881 -2882 -2883 -2884 -2885 0
216 -246 -2886 0
246 -216 -2886 0
2886 -216 -246 0
216 246 2886 0
-242 212 -2887 0
-212 242 -2887 0
2887 -212 -242 0
212 242 2887 0
213 -243 -2888 0
243 -213 -2888 0
2888 -213 -243 0
213 243 2888 0
214 -244 -2889 0
244 -214 -2889 0
2889 -214 -244 0
214 244 2889 0
215 -245 -2890 0
245 -215 -2890 0
2890 -215 -245 0
215 245 2890 0
-2886 -2887 -2888 -2889 -2890 0
226 -6 -2891 0
6 -226 -2891 0
-6 -226 2891 0
6 226 2891 0
222 -5 -2892 0
-222 5 -2892 0
-222 -5 2892 0
5 222 2892 0
223 -4 -2893 0
4 -223 -2893 0
-4 -223 2893 0
4 223 2893 0
224 -3 -2894 0
3 -224 -2894 0
-3 -224 2894 0
3 224 2894 0
225 -2 -2895 0
2 -225 -2895 0
-2 -225 2895 0
2 225 2895 0
-2891 -2892 -2893 -2894 -2895 0
226 -16 -2896 0
16 -226 -2896 0
-16 -226 2896 0
16 226 2896 0
-12 222 -2897 0
-222 12 -2897 0
-12 -222 2897 0
12 222 2897 0
223 -13 -2898 0
13 -223 -2898 0
-13 -223 2898 0
13 223 2898 0
224 -14 -2899 0
14 -224 -2899 0
-14 -224 2899 0
14 224 2899 0
225 -15 -2900 0
15 -225 -2900 0
-15 -225 2900 0
15 225 2900 0
-2896 -2897 -2898 -2899 -2900 0
226 -26 -2901 0
26 -226 -2901 0
-26 -226 2901 0
26 226 2901 0
-22 222 -2902 0
-222 22 -2902 0
-22 -222 2902 0
22 222 2902 0
223 -23 -2903 0
23 -223 -2903 0
-23 -223 2903 0
23 223 2903 0
224 -24 -2904 0
24 -224 -2904 0
-24 -224 2904 0
24 224 2904 0
225 -25 -2905 0
25 -225 -2905 0
-25 -225 2905 0
25 225 2905 0
-2901 -2902 -2903 -2904 -2905 0
226 -36 -2906 0
36 -226 -2906 0
-36 -226 2906 0
36 226 2906 0
-32 222 -2907 0
-222 32 -2907 0
-32 -222 2907 0
32 222 2907 0
223 -33 -2908 0
33 -223 -2908 0
-33 -223 2908 0
33 223 2908 0
224 -34 -2909 0
34 -224 -2909 0
-34 -224 2909 0
34 224 2909 0
225 -35 -2910 0
35 -225 -2910 0
-35 -225 2910 0
35 225 2910 0
-2906 -2907 -2908 -2909 -2910 0
226 -46 -2911 0
46 -226 -2911 0
-46 -226 2911 0
46 226 2911 0
-42 222 -2912 0
-222 42 -2912 0
-42 -222 2912 0
42 222 2912 0
223 -43 -2913 0
43 -223 -2913 0
-43 -223 2913 0
43 223 2913 0
224 -44 -2914 0
44 -224 -2914 0
-44 -224 2914 0
44 224 2914 0
225 -45 -2915 0
45 -225 -2915 0
-45 -225 2915 0
45 225 2915 0
-2911 -2912 -2913 -2914 -2915 0
226 -56 -2916 0
56 -226 -2916 0
-56 -226 2916 0
56 226 2916 0
-52 222 -2917 0
-222 52 -2917 0
-52 -222 2917 0
52 222 2917 0
223 -53 -2918 0
53 -223 -2918 0
-53 -223 2918 0
53 223 2918 0
224 -54 -2919 0
54 -224 -2919 0
-54 -224 2919 0
54 224 2919 0
225 -55 -2920 0
55 -225 -2920 0
-55 -225 2920 0
55 225 2920 0
-2916 -2917 -2918 -2919 -2920 0
226 -66 -2921 0
66 -226 -2921 0
-66 -226 2921 0
66 226 2921 0
-62 222 -2922 0
-222 62 -2922 0
-62 -222 2922 0
62 222 2922 0
223 -63 -2923 0
63 -223 -2923 0
-63 -223 2923 0
63 223 2923 0
224 -64 -2924 0
64 -224 -2924 0
-64 -224 2924 0
64 224 2924 0
225 -65 -2925 0
65 -225 -2925 0
-65 -225 2925 0
65 225 2925 0
-2921 -2922 -2923 -2924 -2925 0
226 -76 -2926 0
76 -226 -2926 0
-76 -226 2926 0
76 226 2926 0
-72 222 -2927 0
-222 72 -2927 0
-72 -222 2927 0
72 222 2927 0
223 -73 -2928 0
73 -223 -2928 0
-73 -223 2928 0
73 223 2928 0
224 -74 -2929 0
74 -224 -2929 0
-74 -224 2929 0
74 224 2929 0
225 -75 -2930 0
75 -225 -2930 0
-75 -225 2930 0
75 225 2930 0
-2926 -2927 -2928 -2929 -2930 0
226 -86 -2931 0
86 -226 -2931 0
-86 -226 2931 0
86 226 2931 0
-82 222 -2932 0
-222 82 -2932 0
-82 -222 2932 0
82 222 2932 0
223 -83 -2933 0
83 -223 -2933 0
-83 -223 2933 0
83 223 2933 0
224 -84 -2934 0
84 -224 -2934 0
-84 -224 2934 0
84 224 2934 0
225 -85 -2935 0
85 -225 -2935 0
-85 -225 2935 0
85 225 2935 0
-2931 -2932 -2933 -2934 -2935 0
226 -96 -2936 0
96 -226 -2936 0
-96 -226 2936 0
96 226 2936 0
-92 222 -2937 0
-222 92 -2937 0
-92 -222 2937 0
92 222 2937 0
223 -93 -2938 0
93 -223 -2938 0
-93 -223 2938 0
93 223 2938 0
224 -94 -2939 0
94 -224 -2939 0
-94 -224 2939 0
94 224 2939 0
225 -95 -2940 0
95 -225 -2940 0
-95 -225 2940 0
95 225 2940 0
-2936 -2937 -2938 -2939 -2940 0
226 -106 -2941 0
106 -226 -2941 0
-106 -226 2941 0
106 226 2941 0
-102 222 -2942 0
-222 102 -2942 0
-102 -222 2942 0
102 222 2942 0
223 -103 -2943 0
103 -223 -2943 0
-103 -223 2943 0
103 223 2943 0
224 -104 -2944 0
104 -224 -2944 0
-104 -224 2944 0
104 224 2944 0
225 -105 -2945 0
105 -225 -2945 0
-105 -225 2945 0
105 225 2945 0
-2941 -2942 -2943 -2944 -2945 0
226 -116 -2946 0
116 -226 -2946 0
-116 -226 2946 0
116 226 2946 0
-112 222 -2947 0
-222 112 -2947 0
-112 -222 2947 0
112 222 2947 0
223 -113 -2948 0
113 -223 -2948 0
-113 -223 2948 0
113 223 2948 0
224 -114 -2949 0
114 -224 -2949 0
-114 -224 2949 0
114 224 2949 0
225 -115 -2950 0
115 -225 -2950 0
-115 -225 2950 0
115 225 2950 0
-2946 -2947 -2948 -2949 -2950 0
226 -126 -2951 0
126 -226 -2951 0
-126 -226 2951 0
126 226 2951 0
-122 222 -2952 0
-222 122 -2952 0
-122 -222 2952 0
122 222 2952 0
223 -123 -2953 0
123 -223 -2953 0
-123 -223 2953 0
123 223 2953 0
224 -124 -2954 0
124 -224 -2954 0
-124 -224 2954 0
124 224 2954 0
225 -125 -2955 0
125 -225 -2955 0
-125 -225 2955 0
125 225 2955 0
-2951 -2952 -2953 -2954 -2955 0
226 -136 -2956 0
136 -226 -2956 0
-136 -226 2956 0
136 226 2956 0
-132 222 -2957 0
-222 132 -2957 0
-132 -222 2957 0
132 222 2957 0
223 -133 -2958 0
133 -223 -2958 0
-133 -223 2958 0
133 223 2958 0
224 -134 -2959 0
134 -224 -2959 0
-134 -224 2959 0
134 224 2959 0
225 -135 -2960 0
135 -225 -2960 0
-135 -225 2960 0
135 225 2960 0
-2956 -2957 -2958 -2959 -2960 0
226 -146 -2961 0
146 -226 -2961 0
-146 -226 2961 0
146 226 2961 0
-142 222 -2962 0
-222 142 -2962 0
-142 -222 2962 0
142 222 2962 0
223 -143 -2963 0
143 -223 -2963 0
-143 -223 2963 0
143 223 2963 0
224 -144 -2964 0
144 -224 -2964 0
-144 -224 2964 0
144 224 2964 0
225 -145 -2965 0
145 -225 -2965 0
-145 -225 2965 0
145 225 2965 0
-2961 -2962 -2963 -2964 -2965 0
226 -156 -2966 0
156 -226 -2966 0
-156 -226 2966 0
156 226 2966 0
-152 222 -2967 0
-222 152 -2967 0
-152 -222 2967 0
152 222 2967 0
223 -153 -2968 0
153 -223 -2968 0
-153 -223 2968 0
153 223 2968 0
224 -154 -2969 0
154 -224 -2969 0
-154 -224 2969 0
154 224 2969 0
225 -155 -2970 0
155 -225 -2970 0
-155 -225 2970 0
155 225 2970 0
-2966 -2967 -2968 -2969 -2970 0
226 -166 -2971 0
166 -226 -2971 0
-166 -226 2971 0
166 226 2971 0
-162 222 -2972 0
-222 162 -2972 0
-162 -222 2972 0
162 222 2972 0
223 -163 -2973 0
163 -223 -2973 0
-163 -223 2973 0
163 223 2973 0
224 -164 -2974 0
164 -224 -2974 0
-164 -224 2974 0
164 224 2974 0
225 -165 -2975 0
165 -225 -2975 0
-165 -225 2975 0
165 225 2975 0
-2971 -2972 -2973 -2974 -2975 0
226 -176 -2976 0
176 -226 -2976 0
-176 -226 2976 0
176 226 2976 0
-172 222 -2977 0
-222 172 -2977 0
-172 -222 2977 0
172 222 2977 0
223 -173 -2978 0
173 -223 -2978 0
-173 -223 2978 0
173 223 2978 0
224 -174 -2979 0
174 -224 -2979 0
-174 -224 2979 0
174 224 2979 0
225 -175 -2980 0
175 -225 -2980 0
-175 -225 2980 0
175 225 2980 0
-2976 -2977 -2978 -2979 -2980 0
226 -186 -2981 0
186 -226 -2981 0
-186 -226 2981 0
186 226 2981 0
-182 222 -2982 0
-222 182 -2982 0
-182 -222 2982 0
182 222 2982 0
223 -183 -2983 0
183 -223 -2983 0
-183 -223 2983 0
183 223 2983 0
224 -184 -2984 0
184 -224 -2984 0
-184 -224 2984 0
184 224 2984 0
225 -185 -2985 0
185 -225 -2985 0
-185 -225 2985 0
185 225 2985 0
-2981 -2982 -2983 -2984 -2985 0
226 -196 -2986 0
196 -226 -2986 0
-196 -226 2986 0
196 226 2986 0
-192 222 -2987 0
-222 192 -2987 0
-192 -222 2987 0
192 222 2987 0
223 -193 -2988 0
193 -223 -2988 0
-193 -223 2988 0
193 223 2988 0
224 -194 -2989 0
194 -224 -2989 0
-194 -224 2989 0
194 224 2989 0
225 -195 -2990 0
195 -225 -2990 0
-195 -225 2990 0
195 225 2990 0
-2986 -2987 -2988 -2989 -2990 0
226 -206 -2991 0
206 -226 -2991 0
-206 -226 2991 0
206 226 2991 0
-202 222 -2992 0
-222 202 -2992 0
-202 -222 2992 0
202 222 2992 0
223 -203 -2993 0
203 -223 -2993 0
-203 -223 2993 0
203 223 2993 0
224 -204 -2994 0
204 -224 -2994 0
-204 -224 2994 0
204 224 2994 0
225 -205 -2995 0
205 -225 -2995 0
-205 -225 2995 0
205 225 2995 0
-2991 -2992 -2993 -2994 -2995 0
226 -216 -2996 0
216 -226 -2996 0
-216 -226 2996 0
216 226 2996 0
-212 222 -2997 0
-222 212 -2997 0
-212 -222 2997 0
212 222 2997 0
223 -213 -2998 0
213 -223 -2998 0
-213 -223 2998 0
213 223 2998 0
224 -214 -2999 0
214 -224 -2999 0
-214 -224 2999 0
214 224 2999 0
225 -215 -3000 0
215 -225 -3000 0
-215 -225 3000 0
215 225 3000 0
-2996 -2997 -2998 -2999 -3000 0
226 -236 -3001 0
236 -226 -3001 0
3001 -226 -236 0
226 236 3001 0
-232 222 -3002 0
-222 232 -3002 0
3002 -222 -232 0
222 232 3002 0
223 -233 -3003 0
233 -223 -3003 0
3003 -223 -233 0
223 233 3003 0
224 -234 -3004 0
234 -224 -3004 0
3004 -224 -234 0
224 234 3004 0
225 -235 -3005 0
235 -225 -3005 0
3005 -225 -235 0
225 235 3005 0
-3001 -3002 -3003 -3004 -3005 0
226 -246 -3006 0
246 -226 -3006 0
3006 -226 -246 0
226 246 3006 0
-242 222 -3007 0
-222 242 -3007 0
3007 -222 -242 0
222 242 3007 0
223 -243 -3008 0
243 -223 -3008 0
3008 -223 -243 0
223 243 3008 0
224 -244 -3009 0
244 -224 -3009 0
3009 -224 -244 0
224 244 3009 0
225 -245 -3010 0
245 -225 -3010 0
3010 -225 -245 0
225 245 3010 0
-3006 -3007 -3008 -3009 -3010 0
236 -6 -3011 0
6 -236 -3011 0
-6 -236 3011 0
6 236 3011 0
232 -5 -3012 0
-232 5 -3012 0
-232 -5 3012 0
5 232 3012 0
233 -4 -3013 0
4 -233 -3013 0
-4 -233 3013 0
4 233 3013 0
234 -3 -3014 0
3 -234 -3014 0
-3 -234 3014 0
3 234 3014 0
235 -2 -3015 0
2 -235 -3015 0
-2 -235 3015 0
2 235 3015 0
-3011 -3012 -3013 -3014 -3015 0
236 -16 -3016 0
16 -236 -3016 0
-16 -236 3016 0
16 236 3016 0
-12 232 -3017 0
-232 12 -3017 0
-12 -232 3017 0
12 232 3017 0
233 -13 -3018 0
13 -233 -3018 0
-13 -233 3018 0
13 233 3018 0
234 -14 -3019 0
14 -234 -3019 0
-14 -234 3019 0
14 234 3019 0
235 -15 -3020 0
15 -235 -3020 0
-15 -235 3020 0
15 235 3020 0
-3016 -3017 -3018 -3019 -3020 0
236 -26 -3021 0
26 -236 -3021 0
-26 -236 3021 0
26 236 3021 0
-22 232 -3022 0
-232 22 -3022 0
-22 -232 3022 0
22 232 3022 0
233 -23 -3023 0
23 -233 -3023 0
-23 -233 3023 0
23 233 3023 0
234 -24 -3024 0
24 -234 -3024 0
-24 -234 3024 0
24 234 3024 0
235 -25 -3025 0
25 -235 -3025 0
-25 -235 3025 0
25 235 3025 0
-3021 -3022 -3023 -3024 -3025 0
236 -36 -3026 0
36 -236 -3026 0
-36 -236 3026 0
36 236 3026 0
-32 232 -3027 0
-232 32 -3027 0
-32 -232 3027 0
32 232 3027 0
233 -33 -3028 0
33 -233 -3028 0
-33 -233 3028 0
33 233 3028 0
234 -34 -3029 0
34 -234 -3029 0
-34 -234 3029 0
34 234 3029 0
235 -35 -3030 0
35 -235 -3030 0
-35 -235 3030 0
35 235 3030 0
-3026 -3027 -3028 -3029 -3030 0
236 -46 -3031 0
46 -236 -3031 0
-46 -236 3031 0
46 236 3031 0
-42 232 -3032 0
-232 42 -3032 0
-42 -232 3032 0
42 232 3032 0
233 -43 -3033 0
43 -233 -3033 0
-43 -233 3033 0
43 233 3033 0
234 -44 -3034 0
44 -234 -3034 0
-44 -234 3034 0
44 234 3034 0
235 -45 -3035 0
45 -235 -3035 0
-45 -235 3035 0
45 235 3035 0
-3031 -3032 -3033 -3034 -3035 0
236 -56 -3036 0
56 -236 -3036 0
-56 -236 3036 0
56 236 3036 0
-52 232 -3037 0
-232 52 -3037 0
-52 -232 3037 0
52 232 3037 0
233 -53 -3038 0
53 -233 -3038 0
-53 -233 3038 0
53 233 3038 0
234 -54 -3039 0
54 -234 -3039 0
-54 -234 3039 0
54 234 3039 0
235 -55 -3040 0
55 -235 -3040 0
-55 -235 3040 0
55 235 3040 0
-3036 -3037 -3038 -3039 -3040 0
236 -66 -3041 0
66 -236 -3041 0
-66 -236 3041 0
66 236 3041 0
-62 232 -3042 0
-232 62 -3042 0
-62 -232 3042 0
62 232 3042 0
233 -63 -3043 0
63 -233 -3043 0
-63 -233 3043 0
63 233 3043 0
234 -64 -3044 0
64 -234 -3044 0
-64 -234 3044 0
64 234 3044 0
235 -65 -3045 0
65 -235 -3045 0
-65 -235 3045 0
65 235 3045 0
-3041 -3042 -3043 -3044 -3045 0
236 -76 -3046 0
76 -236 -3046 0
-76 -236 3046 0
76 236 3046 0
-72 232 -3047 0
-232 72 -3047 0
-72 -232 3047 0
72 232 3047 0
233 -73 -3048 0
73 -233 -3048 0
-73 -233 3048 0
73 233 3048 0
234 -74 -3049 0
74 -234 -3049 0
-74 -234 3049 0
74 234 3049 0
235 -75 -3050 0
75 -235 -3050 0
-75 -235 3050 0
75 235 3050 0
-3046 -3047 -3048 -3049 -3050 0
236 -86 -3051 0
86 -236 -3051 0
-86 -236 3051 0
86 236 3051 0
-82 232 -3052 0
-232 82 -3052 0
-82 -232 3052 0
82 232 3052 0
233 -83 -3053 0
83 -233 -3053 0
-83 -233 3053 0
83 233 3053 0
234 -84 -3054 0
84 -234 -3054 0
-84 -234 3054 0
84 234 3054 0
235 -85 -3055 0
85 -235 -3055 0
-85 -235 3055 0
85 235 3055 0
-3051 -3052 -3053 -3054 -3055 0
236 -96 -3056 0
96 -236 -3056 0
-96 -236 3056 0
96 236 3056 0
-92 232 -3057 0
-232 92 -3057 0
-92 -232 3057 0
92 232 3057 0
233 -93 -3058 0
93 -233 -3058 0
-93 -233 3058 0
93 233 3058 0
234 -94 -3059 0
94 -234 -3059 0
-94 -234 3059 0
94 234 3059 0
235 -95 -3060 0
95 -235 -3060 0
-95 -235 3060 0
95 235 3060 0
-3056 -3057 -3058 -3059 -3060 0
236 -106 -3061 0
106 -236 -3061 0
-106 -236 3061 0
106 236 3061 0
-102 232 -3062 0
-232 102 -3062 0
-102 -232 3062 0
102 232 3062 0
233 -103 -3063 0
103 -233 -3063 0
-103 -233 3063 0
103 233 3063 0
234 -104 -3064 0
104 -234 -3064 0
-104 -234 3064 0
104 234 3064 0
235 -105 -3065 0
105 -235 -3065 0
-105 -235 3065 0
105 235 3065 0
-3061 -3062 -3063 -3064 -3065 0
236 -116 -3066 0
116 -236 -3066 0
-116 -236 3066 0
116 236 3066 0
-112 232 -3067 0
-232 112 -3067 0
-112 -232 3067 0
112 232 3067 0
233 -113 -3068 0
113 -233 -3068 0
-113 -233 3068 0
113 233 3068 0
234 -114 -3069 0
114 -234 -3069 0
-114 -234 3069 0
114 234 3069 0
235 -115 -3070 0
115 -235 -3070 0
-115 -235 3070 0
115 235 3070 0
-3066 -3067 -3068 -3069 -3070 0
236 -126 -3071 0
126 -236 -3071 0
-126 -236 3071 0
126 236 3071 0
-122 232 -3072 0
-232 122 -3072 0
-122 -232 3072 0
122 232 3072 0
233 -123 -3073 0
123 -233 -3073 0
-123 -233 3073 0
123 233 3073 0
234 -124 -3074 0
124 -234 -3074 0
-124 -234 3074 0
124 234 3074 0
235 -125 -3075 0
125 -235 -3075 0
-125 -235 3075 0
125 235 3075 0
-3071 -3072 -3073 -3074 -3075 0
236 -136 -3076 0
136 -236 -3076 0
-136 -236 3076 0
136 236 3076 0
-132 232 -3077 0
-232 132 -3077 0
-132 -232 3077 0
132 232 3077 0
233 -133 -3078 0
133 -233 -3078 0
-133 -233 3078 0
133 233 3078 0
234 -134 -3079 0
134 -234 -3079 0
-134 -234 3079 0
134 234 3079 0
235 -135 -3080 0
135 -235 -3080 0
-135 -235 3080 0
135 235 3080 0
-3076 -3077 -3078 -3079 -3080 0
236 -146 -3081 0
146 -236 -3081 0
-146 -236 3081 0
146 236 3081 0
-142 232 -3082 0
-232 142 -3082 0
-142 -232 3082 0
142 232 3082 0
233 -143 -3083 0
143 -233 -3083 0
-143 -233 3083 0
143 233 3083 0
234 -144 -3084 0
144 -234 -3084 0
-144 -234 3084 0
144 234 3084 0
235 -145 -3085 0
145 -235 -3085 0
-145 -235 3085 0
145 235 3085 0
-3081 -3082 -3083 -3084 -3085 0
236 -156 -3086 0
156 -236 -3086 0
-156 -236 3086 0
156 236 3086 0
-152 232 -3087 0
-232 152 -3087 0
-152 -232 3087 0
152 232 3087 0
233 -153 -3088 0
153 -233 -3088 0
-153 -233 3088 0
153 233 3088 0
234 -154 -3089 0
154 -234 -3089 0
-154 -234 3089 0
154 234 3089 0
235 -155 -3090 0
155 -235 -3090 0
-155 -235 3090 0
155 235 3090 0
-3086 -3087 -3088 -3089 -3090 0
236 -166 -3091 0
166 -236 -3091 0
-166 -236 3091 0
166 236 3091 0
-162 232 -3092 0
-232 162 -3092 0
-162 -232 3092 0
162 232 3092 0
233 -163 -3093 0
163 -233 -3093 0
-163 -233 3093 0
163 233 3093 0
234 -164 -3094 0
164 -234 -3094 0
-164 -234 3094 0
164 234 3094 0
235 -165 -3095 0
165 -235 -3095 0
-165 -235 3095 0
165 235 3095 0
-3091 -3092 -3093 -3094 -3095 0
236 -176 -3096 0
176 -236 -3096 0
-176 -236 3096 0
176 236 3096 0
-172 232 -3097 0
-232 172 -3097 0
-172 -232 3097 0
172 232 3097 0
233 -173 -3098 0
173 -233 -3098 0
-173 -233 3098 0
173 233 3098 0
234 -174 -3099 0
174 -234 -3099 0
-174 -234 3099 0
174 234 3099 0
235 -175 -3100 0
175 -235 -3100 0
-175 -235 3100 0
175 235 3100 0
-3096 -3097 -3098 -3099 -3100 0
236 -186 -3101 0
186 -236 -3101 0
-186 -236 3101 0
186 236 3101 0
-182 232 -3102 0
-232 182 -3102 0
-182 -232 3102 0
182 232 3102 0
233 -183 -3103 0
183 -233 -3103 0
-183 -233 3103 0
183 233 3103 0
234 -184 -3104 0
184 -234 -3104 0
-184 -234 3104 0
184 234 3104 0
235 -185 -3105 0
185 -235 -3105 0
-185 -235 3105 0
185 235 3105 0
-3101 -3102 -3103 -3104 -3105 0
236 -196 -3106 0
196 -236 -3106 0
-196 -236 3106 0
196 236 3106 0
-192 232 -3107 0
-232 192 -3107 0
-192 -232 3107 0
192 232 3107 0
233 -193 -3108 0
193 -233 -3108 0
-193 -233 3108 0
193 233 3108 0
234 -194 -3109 0
194 -234 -3109 0
-194 -234 3109 0
194 234 3109 0
235 -195 -3110 0
195 -235 -3110 0
-195 -235 3110 0
195 235 3110 0
-3106 -3107 -3108 -3109 -3110 0
236 -206 -3111 0
206 -236 -3111 0
-206 -236 3111 0
206 236 3111 0
-202 232 -3112 0
-232 202 -3112 0
-202 -232 3112 0
202 232 3112 0
233 -203 -3113 0
203 -233 -3113 0
-203 -233 3113 0
203 233 3113 0
234 -204 -3114 0
204 -234 -3114 0
-204 -234 3114 0
204 234 3114 0
235 -205 -3115 0
205 -235 -3115 0
-205 -235 3115 0
205 235 3115 0
-3111 -3112 -3113 -3114 -3115 0
236 -216 -3116 0
216 -236 -3116 0
-216 -236 3116 0
216 236 3116 0
-212 232 -3117 0
-232 212 -3117 0
-212 -232 3117 0
212 232 3117 0
233 -213 -3118 0
213 -233 -3118 0
-213 -233 3118 0
213 233 3118 0
234 -214 -3119 0
214 -234 -3119 0
-214 -234 3119 0
214 234 3119 0
235 -215 -3120 0
215 -235 -3120 0
-215 -235 3120 0
215 235 3120 0
-3116 -3117 -3118 -3119 -3120 0
236 -226 -3121 0
226 -236 -3121 0
-226 -236 3121 0
226 236 3121 0
-222 232 -3122 0
-232 222 -3122 0
-222 -232 3122 0
222 232 3122 0
233 -223 -3123 0
223 -233 -3123 0
-223 -233 3123 0
223 233 3123 0
234 -224 -3124 0
224 -234 -3124 0
-224 -234 3124 0
224 234 3124 0
235 -225 -3125 0
225 -235 -3125 0
-225 -235 3125 0
225 235 3125 0
-3121 -3122 -3123 -3124 -3125 0
236 -246 -3126 0
246 -236 -3126 0
3126 -236 -246 0
236 246 3126 0
-242 232 -3127 0
-232 242 -3127 0
3127 -232 -242 0
232 242 3127 0
233 -243 -3128 0
243 -233 -3128 0
3128 -233 -243 0
233 243 3128 0
234 -244 -3129 0
244 -234 -3129 0
3129 -234 -244 0
234 244 3129 0
235 -245 -3130 0
245 -235 -3130 0
3130 -235 -245 0
235 245 3130 0
-3126 -3127 -3128 -3129 -3130 0
246 -6 -3131 0
6 -246 -3131 0
-6 -246 3131 0
6 246 3131 0
242 -5 -3132 0
-242 5 -3132 0
-242 -5 3132 0
5 242 3132 0
243 -4 -3133 0
4 -243 -3133 0
-4 -243 3133 0
4 243 3133 0
244 -3 -3134 0
3 -244 -3134 0
-3 -244 3134 0
3 244 3134 0
245 -2 -3135 0
2 -245 -3135 0
-2 -245 3135 0
2 245 3135 0
-3131 -3132 -3133 -3134 -3135 0
246 -16 -3136 0
16 -246 -3136 0
-16 -246 3136 0
16 246 3136 0
-12 242 -3137 0
-242 12 -3137 0
-12 -242 3137 0
12 242 3137 0
243 -13 -3138 0
13 -243 -3138 0
-13 -243 3138 0
13 243 3138 0
244 -14 -3139 0
14 -244 -3139 0
-14 -244 3139 0
14 244 3139 0
245 -15 -3140 0
15 -245 -3140 0
-15 -245 3140 0
15 245 3140 0
-3136 -3137 -3138 -3139 -3140 0
246 -26 -3141 0
26 -246 -3141 0
-26 -246 3141 0
26 246 3141 0
-22 242 -3142 0
-242 22 -3142 0
-22 -242 3142 0
22 242 3142 0
243 -23 -3143 0
23 -243 -3143 0
-23 -243 3143 0
23 243 3143 0
244 -24 -3144 0
24 -244 -3144 0
-24 -244 3144 0
24 244 3144 0
245 -25 -3145 0
25 -245 -3145 0
-25 -245 3145 0
25 245 3145 0
-3141 -3142 -3143 -3144 -3145 0
246 -36 -3146 0
36 -246 -3146 0
-36 -246 3146 0
36 246 3146 0
-32 242 -3147 0
-242 32 -3147 0
-32 -242 3147 0
32 242 3147 0
243 -33 -3148 0
33 -243 -3148 0
-33 -243 3148 0
33 243 3148 0
244 -34 -3149 0
34 -244 -3149 0
-34 -244 3149 0
34 244 3149 0
245 -35 -3150 0
35 -245 -3150 0
-35 -245 3150 0
35 245 3150 0
-3146 -3147 -3148 -3149 -3150 0
246 -46 -3151 0
46 -246 -3151 0
-46 -246 3151 0
46 246 3151 0
-42 242 -3152 0
-242 42 -3152 0
-42 -242 3152 0
42 242 3152 0
243 -43 -3153 0
43 -243 -3153 0
-43 -243 3153 0
43 243 3153 0
244 -44 -3154 0
44 -244 -3154 0
-44 -244 3154 0
44 244 3154 0
245 -45 -3155 0
45 -245 -3155 0
-45 -245 3155 0
45 245 3155 0
-3151 -3152 -3153 -3154 -3155 0
246 -56 -3156 0
56 -246 -3156 0
-56 -246 3156 0
56 246 3156 0
-52 242 -3157 0
-242 52 -3157 0
-52 -242 3157 0
52 242 3157 0
243 -53 -3158 0
53 -243 -3158 0
-53 -243 3158 0
53 243 3158 0
244 -54 -3159 0
54 -244 -3159 0
-54 -244 3159 0
54 244 3159 0
245 -55 -3160 0
55 -245 -3160 0
-55 -245 3160 0
55 245 3160 0
-3156 -3157 -3158 -3159 -3160 0
246 -66 -3161 0
66 -246 -3161 0
-66 -246 3161 0
66 246 3161 0
-62 242 -3162 0
-242 62 -3162 0
-62 -242 3162 0
62 242 3162 0
243 -63 -3163 0
63 -243 -3163 0
-63 -243 3163 0
63 243 3163 0
244 -64 -3164 0
64 -244 -3164 0
-64 -244 3164 0
64 244 3164 0
245 -65 -3165 0
65 -245 -3165 0
-65 -245 3165 0
65 245 3165 0
-3161 -3162 -3163 -3164 -3165 0
246 -76 -3166 0
76 -246 -3166 0
-76 -246 3166 0
76 246 3166 0
-72 242 -3167 0
-242 72 -3167 0
-72 -242 3167 0
72 242 3167 0
243 -73 -3168 0
73 -243 -3168 0
-73 -243 3168 0
73 243 3168 0
244 -74 -3169 0
74 -244 -3169 0
-74 -244 3169 0
74 244 3169 0
245 -75 -3170 0
75 -245 -3170 0
-75 -245 3170 0
75 245 3170 0
-3166 -3167 -3168 -3169 -3170 0
246 -86 -3171 0
86 -246 -3171 0
-86 -246 3171 0
86 246 3171 0
-82 242 -3172 0
-242 82 -3172 0
-82 -242 3172 0
82 242 3172 0
243 -83 -3173 0
83 -243 -3173 0
-83 -243 3173 0
83 243 3173 0
244 -84 -3174 0
84 -244 -3174 0
-84 -244 3174 0
84 244 3174 0
245 -85 -3175 0
85 -245 -3175 0
-85 -245 3175 0
85 245 3175 0
-3171 -3172 -3173 -3174 -3175 0
246 -96 -3176 0
96 -246 -3176 0
-96 -246 3176 0
96 246 3176 0
-92 242 -3177 0
-242 92 -3177 0
-92 -242 3177 0
92 242 3177 0
243 -93 -3178 0
93 -243 -3178 0
-93 -243 3178 0
93 243 3178 0
244 -94 -3179 0
94 -244 -3179 0
-94 -244 3179 0
94 244 3179 0
245 -95 -3180 0
95 -245 -3180 0
-95 -245 3180 0
95 245 3180 0
-3176 -3177 -3178 -3179 -3180 0
246 -106 -3181 0
106 -246 -3181 0
-106 -246 3181 0
106 246 3181 0
-102 242 -3182 0
-242 102 -3182 0
-102 -242 3182 0
102 242 3182 0
243 -103 -3183 0
103 -243 -3183 0
-103 -243 3183 0
103 243 3183 0
244 -104 -3184 0
104 -244 -3184 0
-104 -244 3184 0
104 244 3184 0
245 -105 -3185 0
105 -245 -3185 0
-105 -245 3185 0
105 245 3185 0
-3181 -3182 -3183 -3184 -3185 0
246 -116 -3186 0
116 -246 -3186 0
-116 -246 3186 0
116 246 3186 0
-112 242 -3187 0
-242 112 -3187 0
-112 -242 3187 0
112 242 3187 0
243 -113 -3188 0
113 -243 -3188 0
-113 -243 3188 0
113 243 3188 0
244 -114 -3189 0
114 -244 -3189 0
-114 -244 3189 0
114 244 3189 0
245 -115 -3190 0
115 -245 -3190 0
-115 -245 3190 0
115 245 3190 0
-3186 -3187 -3188 -3189 -3190 0
246 -126 -3191 0
126 -246 -3191 0
-126 -246 3191 0
126 246 3191 0
-122 242 -3192 0
-242 122 -3192 0
-122 -242 3192 0
122 242 3192 0
243 -123 -3193 0
123 -243 -3193 0
-123 -243 3193 0
123 243 3193 0
244 -124 -3194 0
124 -244 -3194 0
-124 -244 3194 0
124 244 3194 0
245 -125 -3195 0
125 -245 -3195 0
-125 -245 3195 0
125 245 3195 0
-3191 -3192 -3193 -3194 -3195 0
246 -136 -3196 0
136 -246 -3196 0
-136 -246 3196 0
136 246 3196 0
-132 242 -3197 0
-242 132 -3197 0
-132 -242 3197 0
132 242 3197 0
243 -133 -3198 0
133 -243 -3198 0
-133 -243 3198 0
133 243 3198 0
244 -134 -3199 0
134 -244 -3199 0
-134 -244 3199 0
134 244 3199 0
245 -135 -3200 0
135 -245 -3200 0
-135 -245 3200 0
135 245 3200 0
-3196 -3197 -3198 -3199 -3200 0
246 -146 -3201 0
146 -246 -3201 0
-146 -246 3201 0
146 246 3201 0
-142 242 -3202 0
-242 142 -3202 0
-142 -242 3202 0
142 242 3202 0
243 -143 -3203 0
143 -243 -3203 0
-143 -243 3203 0
143 243 3203 0
244 -144 -3204 0
144 -244 -3204 0
-144 -244 3204 0
144 244 3204 0
245 -145 -3205 0
145 -245 -3205 0
-145 -245 3205 0
145 245 3205 0
-3201 -3202 -3203 -3204 -3205 0
246 -156 -3206 0
156 -246 -3206 0
-156 -246 3206 0
156 246 3206 0
-152 242 -3207 0
-242 152 -3207 0
-152 -242 3207 0
152 242 3207 0
243 -153 -3208 0
153 -243 -3208 0
-153 -243 3208 0
153 243 3208 0
244 -154 -3209 0
154 -244 -3209 0
-154 -244 3209 0
154 244 3209 0
245 -155 -3210 0
155 -245 -3210 0
-155 -245 3210 0
155 245 3210 0
-3206 -3207 -3208 -3209 -3210 0
246 -166 -3211 0
166 -246 -3211 0
-166 -246 3211 0
166 246 3211 0
-162 242 -3212 0
-242 162 -3212 0
-162 -242 3212 0
162 242 3212 0
243 -163 -3213 0
163 -243 -3213 0
-163 -243 3213 0
163 243 3213 0
244 -164 -3214 0
164 -244 -3214 0
-164 -244 3214 0
164 244 3214 0
245 -165 -3215 0
165 -245 -3215 0
-165 -245 3215 0
165 245 3215 0
-3211 -3212 -3213 -3214 -3215 0
246 -176 -3216 0
176 -246 -3216 0
-176 -246 3216 0
176 246 3216 0
-172 242 -3217 0
-242 172 -3217 0
-172 -242 3217 0
172 242 3217 0
243 -173 -3218 0
173 -243 -3218 0
-173 -243 3218 0
173 243 3218 0
244 -174 -3219 0
174 -244 -3219 0
-174 -244 3219 0
174 244 3219 0
245 -175 -3220 0
175 -245 -3220 0
-175 -245 3220 0
175 245 3220 0
-3216 -3217 -3218 -3219 -3220 0
246 -186 -3221 0
186 -246 -3221 0
-186 -246 3221 0
186 246 3221 0
-182 242 -3222 0
-242 182 -3222 0
-182 -242 3222 0
182 242 3222 0
243 -183 -3223 0
183 -243 -3223 0
-183 -243 3223 0
183 243 3223 0
244 -184 -3224 0
184 -244 -3224 0
-184 -244 3224 0
184 244 3224 0
245 -185 -3225 0
185 -245 -3225 0
-185 -245 3225 0
185 245 3225 0
-3221 -3222 -3223 -3224 -3225 0
246 -196 -3226 0
196 -246 -3226 0
-196 -246 3226 0
196 246 3226 0
-192 242 -3227 0
-242 192 -3227 0
-192 -242 3227 0
192 242 3227 0
243 -193 -3228 0
193 -243 -3228 0
-193 -243 3228 0
193 243 3228 0
244 -194 -3229 0
194 -244 -3229 0
-194 -244 3229 0
194 244 3229 0
245 -195 -3230 0
195 -245 -3230 0
-195 -245 3230 0
195 245 3230 0
-3226 -3227 -3228 -3229 -3230 0
246 -206 -3231 0
206 -246 -3231 0
-206 -246 3231 0
206 246 3231 0
-202 242 -3232 0
-242 202 -3232 0
-202 -242 3232 0
202 242 3232 0
243 -203 -3233 0
203 -243 -3233 0
-203 -243 3233 0
203 243 3233 0
244 -204 -3234 0
204 -244 -3234 0
-204 -244 3234 0
204 244 3234 0
245 -205 -3235 0
205 -245 -3235 0
-205 -245 3235 0
205 245 3235 0
-3231 -3232 -3233 -3234 -3235 0
246 -216 -3236 0
216 -246 -3236 0
-216 -246 3236 0
216 246 3236 0
-212 242 -3237 0
-242 212 -3237 0
-212 -242 3237 0
212 242 3237 0
243 -213 -3238 0
213 -243 -3238 0
-213 -243 3238 0
213 243 3238 0
244 -214 -3239 0
214 -244 -3239 0
-214 -244 3239 0
214 244 3239 0
245 -215 -3240 0
215 -245 -3240 0
-215 -245 3240 0
215 245 3240 0
-3236 -3237 -3238 -3239 -3240 0
246 -226 -3241 0
226 -246 -3241 0
-226 -246 3241 0
226 246 3241 0
-222 242 -3242 0
-242 222 -3242 0
-222 -242 3242 0
222 242 3242 0
243 -223 -3243 0
223 -243 -3243 0
-223 -243 3243 0
223 243 3243 0
244 -224 -3244 0
224 -244 -3244 0
-224 -244 3244 0
224 244 3244 0
245 -225 -3245 0
225 -245 -3245 0
-225 -245 3245 0
225 245 3245 0
-3241 -3242 -3243 -3244 -3245 0
246 -236 -3246 0
236 -246 -3246 0
-236 -246 3246 0
236 246 3246 0
-232 242 -3247 0
-242 232 -3247 0
-232 -242 3247 0
232 242 3247 0
243 -233 -3248 0
233 -243 -3248 0
-233 -243 3248 0
233 243 3248 0
244 -234 -3249 0
234 -244 -3249 0
-234 -244 3249 0
234 244 3249 0
245 -235 -3250 0
235 -245 -3250 0
-235 -245 3250 0
235 245 3250 0
-3246 -3247 -3248 -3249 -3250 0
-3251 0
-3252 0
-3253 0
-3254 0
-3255 0
-3256 0
-3257 0
-3258 0
-3259 0
-3260 0
-3261 0
-3262 0
-3263 0
-3264 0
-3265 0
-3266 0
-3267 0
-3268 0
-3269 0
-3270 0
-3271 0
-3272 0
-3273 0
-3274 0
-3275 0
-3276 0
-3277 0
-3278 0
-3279 0
-3280 0
-3281 0
-3282 0
-3283 0
-3284 0
-3285 0
-3286 0
-3287 0
-3288 0
-3289 0
-3290 0
-3291 0
-3292 0
-3293 0
-3294 0
-3295 0
-3296 0
-3297 0
-3298 0
-3299 0
-3300 0
-3301 0
-3302 0
-3303 0
-3304 0
-3305 0
-3306 0
-14 3307 0
-15 3307 0
14 15 -3307 0
-3308 -3309 -3310 -3311 -3312 12 13 16 0
-3308 -3309 -3310 -3311 -3312 12 16 3307 0
13 3313 0
14 15 3313 0
-14 -13 -3313 0
-15 -13 -3313 0
3314 -12 0
3314 -16 0
3314 3313 0
-24 3315 0
-25 3315 0
24 25 -3315 0
-3316 -3317 -3318 -3319 -3320 22 23 26 0
-3316 -3317 -3318 -3319 -3320 22 26 3315 0
23 3321 0
24 25 3321 0
-24 -23 -3321 0
-25 -23 -3321 0
3322 -22 0
3322 -26 0
3322 3321 0
-34 3323 0
-35 3323 0
34 35 -3323 0
-3324 -3325 -3326 -3327 -3328 32 33 36 0
-3324 -3325 -3326 -3327 -3328 32 36 3323 0
33 3329 0
34 35 3329 0
-34 -33 -3329 0
-35 -33 -3329 0
3330 -32 0
3330 -36 0
3330 3329 0
-54 3331 0
-55 3331 0
54 55 -3331 0
-3332 -3333 -3334 -3335 -3336 52 53 56 0
-3332 -3333 -3334 -3335 -3336 52 56 3331 0
53 3337 0
54 55 3337 0
-54 -53 -3337 0
-55 -53 -3337 0
3338 -52 0
3338 -56 0
3338 3337 0
-64 3339 0
-65 3339 0
64 65 -3339 0
3340 62 63 66 0
3340 62 66 3339 0
63 3341 0
64 65 3341 0
-64 -63 -3341 0
-65 -63 -3341 0
-3342 -62 0
-3342 -66 0
-3342 3341 0
-74 3343 0
-75 3343 0
74 75 -3343 0
72 73 76 3344 0
72 76 3343 3344 0
73 3345 0
74 75 3345 0
-74 -73 -3345 0
-75 -73 -3345 0
-72 -3346 0
-76 -3346 0
-3346 3345 0
-84 3347 0
-85 3347 0
84 85 -3347 0
82 83 86 3348 0
82 86 3347 3348 0
83 3349 0
84 85 3349 0
-84 -83 -3349 0
-85 -83 -3349 0
-82 -3350 0
-86 -3350 0
-3350 3349 0
-94 3351 0
-95 3351 0
94 95 -3351 0
-3352 -3353 -3354 -3355 -3356 92 93 96 0
-3352 -3353 -3354 -3355 -3356 92 96 3351 0
93 3357 0
94 95 3357 0
-94 -93 -3357 0
-95 -93 -3357 0
3358 -92 0
3358 -96 0
3358 3357 0
-104 3359 0
-105 3359 0
104 105 -3359 0
-3360 -3361 -3362 -3363 -3364 102 103 106 0
-3360 -3361 -3362 -3363 -3364 102 106 3359 0
103 3365 0
104 105 3365 0
-104 -103 -3365 0
-105 -103 -3365 0
3366 -102 0
3366 -106 0
3366 3365 0
-114 3367 0
-115 3367 0
114 115 -3367 0
112 113 116 3368 0
112 116 3367 3368 0
113 3369 0
114 115 3369 0
-114 -113 -3369 0
-115 -113 -3369 0
-112 -3370 0
-116 -3370 0
-3370 3369 0
-124 3371 0
-125 3371 0
124 125 -3371 0
122 123 126 3372 0
122 126 3371 3372 0
123 3373 0
124 125 3373 0
-124 -123 -3373 0
-125 -123 -3373 0
-122 -3374 0
-126 -3374 0
-3374 3373 0
-134 3375 0
-135 3375 0
134 135 -3375 0
132 133 136 3376 0
132 136 3375 3376 0
133 3377 0
134 135 3377 0
-134 -133 -3377 0
-135 -133 -3377 0
-132 -3378 0
-136 -3378 0
-3378 3377 0
-144 3379 0
-145 3379 0
144 145 -3379 0
-3380 -3381 -3382 -3383 -3384 142 143 146 0
-3380 -3381 -3382 -3383 -3384 142 146 3379 0
143 3385 0
144 145 3385 0
-144 -143 -3385 0
-145 -143 -3385 0
3386 -142 0
3386 -146 0
3386 3385 0
-154 3387 0
-155 3387 0
154 155 -3387 0
-3388 -3389 -3390 -3391 -3392 152 153 156 0
-3388 -3389 -3390 -3391 -3392 152 156 3387 0
153 3393 0
154 155 3393 0
-154 -153 -3393 0
-155 -153 -3393 0
3394 -152 0
3394 -156 0
3394 3393 0
-164 3395 0
-165 3395 0
164 165 -3395 0
162 163 166 3396 0
162 166 3395 3396 0
163 3397 0
164 165 3397 0
-164 -163 -3397 0
-165 -163 -3397 0
-162 -3398 0
-166 -3398 0
-3398 3397 0
-174 3399 0
-175 3399 0
174 175 -3399 0
172 173 176 3400 0
172 176 3399 3400 0
173 3401 0
174 175 3401 0
-174 -173 -3401 0
-175 -173 -3401 0
-172 -3402 0
-176 -3402 0
-3402 3401 0
-184 3403 0
-185 3403 0
184 185 -3403 0
182 183 186 3404 0
182 186 3403 3404 0
183 3405 0
184 185 3405 0
-184 -183 -3405 0
-185 -183 -3405 0
-182 -3406 0
-186 -3406 0
-3406 3405 0
-194 3407 0
-195 3407 0
194 195 -3407 0
-3408 -3409 -3410 -3411 -3412 192 193 196 0
-3408 -3409 -3410 -3411 -3412 192 196 3407 0
193 3413 0
194 195 3413 0
-194 -193 -3413 0
-195 -193 -3413 0
3414 -192 0
3414 -196 0
3414 3413 0
-214 3415 0
-215 3415 0
214 215 -3415 0
-3416 -3417 -3418 -3419 -3420 212 213 216 0
-3416 -3417 -3418 -3419 -3420 212 216 3415 0
213 3421 0
214 215 3421 0
-214 -213 -3421 0
-215 -213 -3421 0
3422 -212 0
3422 -216 0
3422 3421 0
-224 3423 0
-225 3423 0
224 225 -3423 0
-3424 -3425 -3426 -3427 -3428 222 223 226 0
-3424 -3425 -3426 -3427 -3428 222 226 3423 0
223 3429 0
224 225 3429 0
-224 -223 -3429 0
-225 -223 -3429 0
3430 -222 0
3430 -226 0
3430 3429 0
-234 3431 0
-235 3431 0
234 235 -3431 0
-3432 -3433 -3434 -3435 -3436 232 233 236 0
-3432 -3433 -3434 -3435 -3436 232 236 3431 0
233 3437 0
234 235 3437 0
-234 -233 -3437 0
-235 -233 -3437 0
3438 -232 0
3438 -236 0
3438 3437 0
-2 3439 0
-3 3439 0
2 3 -3439 0
-3312 4 5 6 0
5 6 3439 -3312 0
-3334 4 5 6 0
5 6 3439 -3334 0
-3440 4 5 6 0
5 6 3439 -3440 0
-3441 12 13 16 0
12 16 3307 -3441 0
-3320 12 13 16 0
12 16 3307 -3320 0
-3332 12 13 16 0
12 16 3307 -3332 0
-3442 12 13 16 0
12 16 3307 -3442 0
-3443 12 13 16 0
12 16 3307 -3443 0
3444 -12 0
3444 -16 0
3444 3313 0
-3310 22 23 26 0
22 26 3315 -3310 0
-3328 22 23 26 0
22 26 3315 -3328 0
-3445 22 23 26 0
22 26 3315 -3445 0
-3446 22 23 26 0
22 26 3315 -3446 0
-3447 22 23 26 0
22 26 3315 -3447 0
3448 -22 0
3448 -26 0
3448 3321 0
-3318 32 33 36 0
32 36 3323 -3318 0
-3449 32 33 36 0
32 36 3323 -3449 0
-3450 32 33 36 0
32 36 3323 -3450 0
-3451 32 33 36 0
32 36 3323 -3451 0
-3352 32 33 36 0
32 36 3323 -3352 0
3452 -32 0
3452 -36 0
3452 3329 0
-44 3453 0
-45 3453 0
44 45 -3453 0
-3326 42 43 46 0
42 46 3453 -3326 0
-3454 42 43 46 0
42 46 3453 -3454 0
-3354 42 43 46 0
42 46 3453 -3354 0
-3455 52 53 56 0
52 56 3331 -3455 0
-3308 52 53 56 0
52 56 3331 -3308 0
-3456 52 53 56 0
52 56 3331 -3456 0
-3362 52 53 56 0
52 56 3331 -3362 0
-3457 52 53 56 0
52 56 3331 -3457 0
3458 -52 0
3458 -56 0
3458 3337 0
-3459 62 63 66 0
62 66 3339 -3459 0
-3311 62 63 66 0
62 66 3339 -3311 0
-3316 62 63 66 0
62 66 3339 -3316 0
-3335 62 63 66 0
62 66 3339 -3335 0
-3460 62 63 66 0
62 66 3339 -3460 0
-3360 62 63 66 0
62 66 3339 -3360 0
-3461 62 63 66 0
62 66 3339 -3461 0
-3462 62 63 66 0
62 66 3339 -3462 0
-62 -3463 0
-66 -3463 0
-3463 3341 0
-3309 72 73 76 0
72 76 3343 -3309 0
-3319 72 73 76 0
72 76 3343 -3319 0
-3324 72 73 76 0
72 76 3343 -3324 0
-3464 72 73 76 0
72 76 3343 -3464 0
-3465 72 73 76 0
72 76 3343 -3465 0
-3466 72 73 76 0
72 76 3343 -3466 0
-3467 72 73 76 0
72 76 3343 -3467 0
-3468 72 73 76 0
72 76 3343 -3468 0
-72 -3469 0
-76 -3469 0
-3469 3345 0
-3317 82 83 86 0
82 86 3347 -3317 0
-3327 82 83 86 0
82 86 3347 -3327 0
-3470 82 83 86 0
82 86 3347 -3470 0
-3471 82 83 86 0
82 86 3347 -3471 0
-3356 82 83 86 0
82 86 3347 -3356 0
-3472 82 83 86 0
82 86 3347 -3472 0
-3473 82 83 86 0
82 86 3347 -3473 0
-3380 82 83 86 0
82 86 3347 -3380 0
-82 -3474 0
-86 -3474 0
-3474 3349 0
-3325 92 93 96 0
92 96 3351 -3325 0
-3475 92 93 96 0
92 96 3351 -3475 0
-3476 92 93 96 0
92 96 3351 -3476 0
-3477 92 93 96 0
92 96 3351 -3477 0
-3382 92 93 96 0
92 96 3351 -3382 0
3478 -92 0
3478 -96 0
3478 3357 0
-3336 102 103 106 0
102 106 3359 -3336 0
-3479 102 103 106 0
102 106 3359 -3479 0
-3480 102 103 106 0
102 106 3359 -3480 0
-3390 102 103 106 0
102 106 3359 -3390 0
-3481 102 103 106 0
102 106 3359 -3481 0
3482 -102 0
3482 -106 0
3482 3365 0
-3333 112 113 116 0
112 116 3367 -3333 0
-3483 112 113 116 0
112 116 3367 -3483 0
-3484 112 113 116 0
112 116 3367 -3484 0
-3363 112 113 116 0
112 116 3367 -3363 0
-3485 112 113 116 0
112 116 3367 -3485 0
-3388 112 113 116 0
112 116 3367 -3388 0
-3486 112 113 116 0
112 116 3367 -3486 0
-3487 112 113 116 0
112 116 3367 -3487 0
-112 -3488 0
-116 -3488 0
-3488 3369 0
-3489 122 123 126 0
122 126 3371 -3489 0
-3490 122 123 126 0
122 126 3371 -3490 0
-3491 122 123 126 0
122 126 3371 -3491 0
-3492 122 123 126 0
122 126 3371 -3492 0
-3493 122 123 126 0
122 126 3371 -3493 0
-3494 122 123 126 0
122 126 3371 -3494 0
-3495 122 123 126 0
122 126 3371 -3495 0
-3496 122 123 126 0
122 126 3371 -3496 0
-122 -3497 0
-126 -3497 0
-3497 3373 0
-3498 132 133 136 0
132 136 3375 -3498 0
-3499 132 133 136 0
132 136 3375 -3499 0
-3353 132 133 136 0
132 136 3375 -3353 0
-3500 132 133 136 0
132 136 3375 -3500 0
-3384 132 133 136 0
132 136 3375 -3384 0
-3501 132 133 136 0
132 136 3375 -3501 0
-3502 132 133 136 0
132 136 3375 -3502 0
-3408 132 133 136 0
132 136 3375 -3408 0
-132 -3503 0
-136 -3503 0
-3503 3377 0
-3504 142 143 146 0
142 146 3379 -3504 0
-3355 142 143 146 0
142 146 3379 -3355 0
-3505 142 143 146 0
142 146 3379 -3505 0
-3506 142 143 146 0
142 146 3379 -3506 0
-3410 142 143 146 0
142 146 3379 -3410 0
3507 -142 0
3507 -146 0
3507 3385 0
-3364 152 153 156 0
152 156 3387 -3364 0
-3508 152 153 156 0
152 156 3387 -3508 0
-3509 152 153 156 0
152 156 3387 -3509 0
-3510 152 153 156 0
152 156 3387 -3510 0
-3417 152 153 156 0
152 156 3387 -3417 0
3511 -152 0
3511 -156 0
3511 3393 0
-3361 162 163 166 0
162 166 3395 -3361 0
-3512 162 163 166 0
162 166 3395 -3512 0
-3513 162 163 166 0
162 166 3395 -3513 0
-3391 162 163 166 0
162 166 3395 -3391 0
-3514 162 163 166 0
162 166 3395 -3514 0
-3515 162 163 166 0
162 166 3395 -3515 0
-3418 162 163 166 0
162 166 3395 -3418 0
-3425 162 163 166 0
162 166 3395 -3425 0
-162 -3516 0
-166 -3516 0
-3516 3397 0
-3517 172 173 176 0
172 176 3399 -3517 0
-3518 172 173 176 0
172 176 3399 -3518 0
-3519 172 173 176 0
172 176 3399 -3519 0
-3520 172 173 176 0
172 176 3399 -3520 0
-3521 172 173 176 0
172 176 3399 -3521 0
-3416 172 173 176 0
172 176 3399 -3416 0
-3426 172 173 176 0
172 176 3399 -3426 0
-3433 172 173 176 0
172 176 3399 -3433 0
-172 -3522 0
-176 -3522 0
-3522 3401 0
-3523 182 183 186 0
182 186 3403 -3523 0
-3524 182 183 186 0
182 186 3403 -3524 0
-3381 182 183 186 0
182 186 3403 -3381 0
-3525 182 183 186 0
182 186 3403 -3525 0
-3412 182 183 186 0
182 186 3403 -3412 0
-3424 182 183 186 0
182 186 3403 -3424 0
-3434 182 183 186 0
182 186 3403 -3434 0
-3526 182 183 186 0
182 186 3403 -3526 0
-182 -3527 0
-186 -3527 0
-3527 3405 0
-3528 192 193 196 0
192 196 3407 -3528 0
-3383 192 193 196 0
192 196 3407 -3383 0
-3529 192 193 196 0
192 196 3407 -3529 0
-3432 192 193 196 0
192 196 3407 -3432 0
-3530 192 193 196 0
192 196 3407 -3530 0
3531 -192 0
3531 -196 0
3531 3413 0
-204 3532 0
-205 3532 0
204 205 -3532 0
-3392 202 203 206 0
202 206 3532 -3392 0
-3533 202 203 206 0
202 206 3532 -3533 0
-3420 202 203 206 0
202 206 3532 -3420 0
-3389 212 213 216 0
212 216 3415 -3389 0
-3534 212 213 216 0
212 216 3415 -3534 0
-3535 212 213 216 0
212 216 3415 -3535 0
-3536 212 213 216 0
212 216 3415 -3536 0
-3428 212 213 216 0
212 216 3415 -3428 0
3537 -212 0
3537 -216 0
3537 3421 0
-3538 222 223 226 0
222 226 3423 -3538 0
-3539 222 223 226 0
222 226 3423 -3539 0
-3540 222 223 226 0
222 226 3423 -3540 0
-3419 222 223 226 0
222 226 3423 -3419 0
-3436 222 223 226 0
222 226 3423 -3436 0
3541 -222 0
3541 -226 0
3541 3429 0
-3542 232 233 236 0
232 236 3431 -3542 0
-3543 232 233 236 0
232 236 3431 -3543 0
-3409 232 233 236 0
232 236 3431 -3409 0
-3427 232 233 236 0
232 236 3431 -3427 0
-3544 232 233 236 0
232 236 3431 -3544 0
3545 -232 0
3545 -236 0
3545 3437 0
-244 3546 0
-245 3546 0
244 245 -3546 0
-3547 242 243 246 0
242 246 3546 -3547 0
-3411 242 243 246 0
242 246 3546 -3411 0
-3435 242 243 246 0
242 246 3546 -3435 0
3 3548 0
2 -15 3548 0
-2 -3 -3548 0
15 -3 -3548 0
-14 3549 0
2 -15 3549 0
14 -2 -3549 0
14 15 -3549 0
-14 3550 0
3 3550 0
14 -3 -3550 0
4 3551 0
-3548 -3549 -3550 3551 0
-4 3550 -3551 0
-4 3549 -3551 0
-4 3548 -3551 0
-13 3552 0
-3548 -3549 -3550 3552 0
13 3550 -3552 0
13 3549 -3552 0
13 3548 -3552 0
-13 3553 0
4 3553 0
13 -4 -3553 0
5 3554 0
-3551 -3552 -3553 3554 0
-5 3553 -3554 0
-5 3552 -3554 0
-5 3551 -3554 0
-12 3555 0
-3551 -3552 -3553 3555 0
12 3553 -3555 0
12 3552 -3555 0
12 3551 -3555 0
-12 3556 0
5 3556 0
12 -5 -3556 0
6 3557 0
-3554 -3555 -3556 3557 0
-6 3556 -3557 0
-6 3555 -3557 0
-6 3554 -3557 0
-16 3558 0
-3554 -3555 -3556 3558 0
16 3556 -3558 0
16 3555 -3558 0
16 3554 -3558 0
-16 3559 0
6 3559 0
16 -6 -3559 0
-3441 3559 0
-3441 3558 0
-3441 3557 0
3 3560 0
2 -65 3560 0
-2 -3 -3560 0
65 -3 -3560 0
-64 3561 0
2 -65 3561 0
64 -2 -3561 0
64 65 -3561 0
-64 3562 0
3 3562 0
64 -3 -3562 0
4 3563 0
-3560 -3561 -3562 3563 0
-4 3562 -3563 0
-4 3561 -3563 0
-4 3560 -3563 0
-63 3564 0
-3560 -3561 -3562 3564 0
63 3562 -3564 0
63 3561 -3564 0
63 3560 -3564 0
-63 3565 0
4 3565 0
63 -4 -3565 0
5 3566 0
-3563 -3564 -3565 3566 0
-5 3565 -3566 0
-5 3564 -3566 0
-5 3563 -3566 0
-62 3567 0
-3563 -3564 -3565 3567 0
62 3565 -3567 0
62 3564 -3567 0
62 3563 -3567 0
-62 3568 0
5 3568 0
62 -5 -3568 0
6 3569 0
-3566 -3567 -3568 3569 0
-6 3568 -3569 0
-6 3567 -3569 0
-6 3566 -3569 0
-66 3570 0
-3566 -3567 -3568 3570 0
66 3568 -3570 0
66 3567 -3570 0
66 3566 -3570 0
-66 3571 0
6 3571 0
66 -6 -3571 0
-3459 3571 0
-3459 3570 0
-3459 3569 0
3 3572 0
2 -55 3572 0
-2 -3 -3572 0
55 -3 -3572 0
-54 3573 0
2 -55 3573 0
54 -2 -3573 0
54 55 -3573 0
-54 3574 0
3 3574 0
54 -3 -3574 0
4 3575 0
-3572 -3573 -3574 3575 0
-4 3574 -3575 0
-4 3573 -3575 0
-4 3572 -3575 0
-53 3576 0
-3572 -3573 -3574 3576 0
53 3574 -3576 0
53 3573 -3576 0
53 3572 -3576 0
-53 3577 0
4 3577 0
53 -4 -3577 0
5 3578 0
-3575 -3576 -3577 3578 0
-5 3577 -3578 0
-5 3576 -3578 0
-5 3575 -3578 0
-52 3579 0
-3575 -3576 -3577 3579 0
52 3577 -3579 0
52 3576 -3579 0
52 3575 -3579 0
-52 3580 0
5 3580 0
52 -5 -3580 0
6 3581 0
-3578 -3579 -3580 3581 0
-6 3580 -3581 0
-6 3579 -3581 0
-6 3578 -3581 0
-56 3582 0
-3578 -3579 -3580 3582 0
56 3580 -3582 0
56 3579 -3582 0
56 3578 -3582 0
-56 3583 0
6 3583 0
56 -6 -3583 0
-3455 3583 0
-3455 3582 0
-3455 3581 0
14 3584 0
15 -25 3584 0
-15 -14 -3584 0
25 -14 -3584 0
-24 3585 0
15 -25 3585 0
24 -15 -3585 0
24 25 -3585 0
-24 3586 0
14 3586 0
24 -14 -3586 0
13 3587 0
-3584 -3585 -3586 3587 0
-13 3586 -3587 0
-13 3585 -3587 0
-13 3584 -3587 0
-23 3588 0
-3584 -3585 -3586 3588 0
23 3586 -3588 0
23 3585 -3588 0
23 3584 -3588 0
-23 3589 0
13 3589 0
23 -13 -3589 0
12 3590 0
-3587 -3588 -3589 3590 0
-12 3589 -3590 0
-12 3588 -3590 0
-12 3587 -3590 0
-22 3591 0
-3587 -3588 -3589 3591 0
22 3589 -3591 0
22 3588 -3591 0
22 3587 -3591 0
-22 3592 0
12 3592 0
22 -12 -3592 0
16 3593 0
-3590 -3591 -3592 3593 0
-16 3592 -3593 0
-16 3591 -3593 0
-16 3590 -3593 0
-26 3594 0
-3590 -3591 -3592 3594 0
26 3592 -3594 0
26 3591 -3594 0
26 3590 -3594 0
-26 3595 0
16 3595 0
26 -16 -3595 0
-3310 3595 0
-3310 3594 0
-3310 3593 0
14 3596 0
15 -75 3596 0
-15 -14 -3596 0
75 -14 -3596 0
-74 3597 0
15 -75 3597 0
74 -15 -3597 0
74 75 -3597 0
-74 3598 0
14 3598 0
74 -14 -3598 0
13 3599 0
-3596 -3597 -3598 3599 0
-13 3598 -3599 0
-13 3597 -3599 0
-13 3596 -3599 0
-73 3600 0
-3596 -3597 -3598 3600 0
73 3598 -3600 0
73 3597 -3600 0
73 3596 -3600 0
-73 3601 0
13 3601 0
73 -13 -3601 0
12 3602 0
-3599 -3600 -3601 3602 0
-12 3601 -3602 0
-12 3600 -3602 0
-12 3599 -3602 0
-72 3603 0
-3599 -3600 -3601 3603 0
72 3601 -3603 0
72 3600 -3603 0
72 3599 -3603 0
-72 3604 0
12 3604 0
72 -12 -3604 0
16 3605 0
-3602 -3603 -3604 3605 0
-16 3604 -3605 0
-16 3603 -3605 0
-16 3602 -3605 0
-76 3606 0
-3602 -3603 -3604 3606 0
76 3604 -3606 0
76 3603 -3606 0
76 3602 -3606 0
-76 3607 0
16 3607 0
76 -16 -3607 0
-3309 3607 0
-3309 3606 0
-3309 3605 0
14 3608 0
15 -65 3608 0
-15 -14 -3608 0
65 -14 -3608 0
-64 3609 0
15 -65 3609 0
64 -15 -3609 0
64 65 -3609 0
-64 3610 0
14 3610 0
64 -14 -3610 0
13 3611 0
-3608 -3609 -3610 3611 0
-13 3610 -3611 0
-13 3609 -3611 0
-13 3608 -3611 0
-63 3612 0
-3608 -3609 -3610 3612 0
63 3610 -3612 0
63 3609 -3612 0
63 3608 -3612 0
-63 3613 0
13 3613 0
63 -13 -3613 0
12 3614 0
-3611 -3612 -3613 3614 0
-12 3613 -3614 0
-12 3612 -3614 0
-12 3611 -3614 0
-62 3615 0
-3611 -3612 -3613 3615 0
62 3613 -3615 0
62 3612 -3615 0
62 3611 -3615 0
-62 3616 0
12 3616 0
62 -12 -3616 0
16 3617 0
-3614 -3615 -3616 3617 0
-16 3616 -3617 0
-16 3615 -3617 0
-16 3614 -3617 0
-66 3618 0
-3614 -3615 -3616 3618 0
66 3616 -3618 0
66 3615 -3618 0
66 3614 -3618 0
-66 3619 0
16 3619 0
66 -16 -3619 0
-3311 3619 0
-3311 3618 0
-3311 3617 0
14 3620 0
15 -55 3620 0
-15 -14 -3620 0
55 -14 -3620 0
-54 3621 0
15 -55 3621 0
54 -15 -3621 0
54 55 -3621 0
-54 3622 0
14 3622 0
54 -14 -3622 0
13 3623 0
-3620 -3621 -3622 3623 0
-13 3622 -3623 0
-13 3621 -3623 0
-13 3620 -3623 0
-53 3624 0
-3620 -3621 -3622 3624 0
53 3622 -3624 0
53 3621 -3624 0
53 3620 -3624 0
-53 3625 0
13 3625 0
53 -13 -3625 0
12 3626 0
-3623 -3624 -3625 3626 0
-12 3625 -3626 0
-12 3624 -3626 0
-12 3623 -3626 0
-52 3627 0
-3623 -3624 -3625 3627 0
52 3625 -3627 0
52 3624 -3627 0
52 3623 -3627 0
-52 3628 0
12 3628 0
52 -12 -3628 0
16 3629 0
-3626 -3627 -3628 3629 0
-16 3628 -3629 0
-16 3627 -3629 0
-16 3626 -3629 0
-56 3630 0
-3626 -3627 -3628 3630 0
56 3628 -3630 0
56 3627 -3630 0
56 3626 -3630 0
-56 3631 0
16 3631 0
56 -16 -3631 0
-3308 3631 0
-3308 3630 0
-3308 3629 0
14 3632 0
15 -2 3632 0
-15 -14 -3632 0
2 -14 -3632 0
-3 3633 0
15 -2 3633 0
3 -15 -3633 0
2 3 -3633 0
-3 3634 0
14 3634 0
3 -14 -3634 0
13 3635 0
-3632 -3633 -3634 3635 0
-13 3634 -3635 0
-13 3633 -3635 0
-13 3632 -3635 0
-4 3636 0
-3632 -3633 -3634 3636 0
4 3634 -3636 0
4 3633 -3636 0
4 3632 -3636 0
-4 3637 0
13 3637 0
4 -13 -3637 0
12 3638 0
-3635 -3636 -3637 3638 0
-12 3637 -3638 0
-12 3636 -3638 0
-12 3635 -3638 0
-5 3639 0
-3635 -3636 -3637 3639 0
5 3637 -3639 0
5 3636 -3639 0
5 3635 -3639 0
-5 3640 0
12 3640 0
5 -12 -3640 0
16 3641 0
-3638 -3639 -3640 3641 0
-16 3640 -3641 0
-16 3639 -3641 0
-16 3638 -3641 0
-6 3642 0
-3638 -3639 -3640 3642 0
6 3640 -3642 0
6 3639 -3642 0
6 3638 -3642 0
-6 3643 0
16 3643 0
6 -16 -3643 0
-3312 3643 0
-3312 3642 0
-3312 3641 0
24 3644 0
25 -35 3644 0
-25 -24 -3644 0
35 -24 -3644 0
-34 3645 0
25 -35 3645 0
34 -25 -3645 0
34 35 -3645 0
-34 3646 0
24 3646 0
34 -24 -3646 0
23 3647 0
-3644 -3645 -3646 3647 0
-23 3646 -3647 0
-23 3645 -3647 0
-23 3644 -3647 0
-33 3648 0
-3644 -3645 -3646 3648 0
33 3646 -3648 0
33 3645 -3648 0
33 3644 -3648 0
-33 3649 0
23 3649 0
33 -23 -3649 0
22 3650 0
-3647 -3648 -3649 3650 0
-22 3649 -3650 0
-22 3648 -3650 0
-22 3647 -3650 0
-32 3651 0
-3647 -3648 -3649 3651 0
32 3649 -3651 0
32 3648 -3651 0
32 3647 -3651 0
-32 3652 0
22 3652 0
32 -22 -3652 0
26 3653 0
-3650 -3651 -3652 3653 0
-26 3652 -3653 0
-26 3651 -3653 0
-26 3650 -3653 0
-36 3654 0
-3650 -3651 -3652 3654 0
36 3652 -3654 0
36 3651 -3654 0
36 3650 -3654 0
-36 3655 0
26 3655 0
36 -26 -3655 0
-3318 3655 0
-3318 3654 0
-3318 3653 0
24 3656 0
25 -85 3656 0
-25 -24 -3656 0
85 -24 -3656 0
-84 3657 0
25 -85 3657 0
84 -25 -3657 0
84 85 -3657 0
-84 3658 0
24 3658 0
84 -24 -3658 0
23 3659 0
-3656 -3657 -3658 3659 0
-23 3658 -3659 0
-23 3657 -3659 0
-23 3656 -3659 0
-83 3660 0
-3656 -3657 -3658 3660 0
83 3658 -3660 0
83 3657 -3660 0
83 3656 -3660 0
-83 3661 0
23 3661 0
83 -23 -3661 0
22 3662 0
-3659 -3660 -3661 3662 0
-22 3661 -3662 0
-22 3660 -3662 0
-22 3659 -3662 0
-82 3663 0
-3659 -3660 -3661 3663 0
82 3661 -3663 0
82 3660 -3663 0
82 3659 -3663 0
-82 3664 0
22 3664 0
82 -22 -3664 0
26 3665 0
-3662 -3663 -3664 3665 0
-26 3664 -3665 0
-26 3663 -3665 0
-26 3662 -3665 0
-86 3666 0
-3662 -3663 -3664 3666 0
86 3664 -3666 0
86 3663 -3666 0
86 3662 -3666 0
-86 3667 0
26 3667 0
86 -26 -3667 0
-3317 3667 0
-3317 3666 0
-3317 3665 0
24 3668 0
25 -75 3668 0
-25 -24 -3668 0
75 -24 -3668 0
-74 3669 0
25 -75 3669 0
74 -25 -3669 0
74 75 -3669 0
-74 3670 0
24 3670 0
74 -24 -3670 0
23 3671 0
-3668 -3669 -3670 3671 0
-23 3670 -3671 0
-23 3669 -3671 0
-23 3668 -3671 0
-73 3672 0
-3668 -3669 -3670 3672 0
73 3670 -3672 0
73 3669 -3672 0
73 3668 -3672 0
-73 3673 0
23 3673 0
73 -23 -3673 0
22 3674 0
-3671 -3672 -3673 3674 0
-22 3673 -3674 0
-22 3672 -3674 0
-22 3671 -3674 0
-72 3675 0
-3671 -3672 -3673 3675 0
72 3673 -3675 0
72 3672 -3675 0
72 3671 -3675 0
-72 3676 0
22 3676 0
72 -22 -3676 0
26 3677 0
-3674 -3675 -3676 3677 0
-26 3676 -3677 0
-26 3675 -3677 0
-26 3674 -3677 0
-76 3678 0
-3674 -3675 -3676 3678 0
76 3676 -3678 0
76 3675 -3678 0
76 3674 -3678 0
-76 3679 0
26 3679 0
76 -26 -3679 0
-3319 3679 0
-3319 3678 0
-3319 3677 0
24 3680 0
25 -65 3680 0
-25 -24 -3680 0
65 -24 -3680 0
-64 3681 0
25 -65 3681 0
64 -25 -3681 0
64 65 -3681 0
-64 3682 0
24 3682 0
64 -24 -3682 0
23 3683 0
-3680 -3681 -3682 3683 0
-23 3682 -3683 0
-23 3681 -3683 0
-23 3680 -3683 0
-63 3684 0
-3680 -3681 -3682 3684 0
63 3682 -3684 0
63 3681 -3684 0
63 3680 -3684 0
-63 3685 0
23 3685 0
63 -23 -3685 0
22 3686 0
-3683 -3684 -3685 3686 0
-22 3685 -3686 0
-22 3684 -3686 0
-22 3683 -3686 0
-62 3687 0
-3683 -3684 -3685 3687 0
62 3685 -3687 0
62 3684 -3687 0
62 3683 -3687 0
-62 3688 0
22 3688 0
62 -22 -3688 0
26 3689 0
-3686 -3687 -3688 3689 0
-26 3688 -3689 0
-26 3687 -3689 0
-26 3686 -3689 0
-66 3690 0
-3686 -3687 -3688 3690 0
66 3688 -3690 0
66 3687 -3690 0
66 3686 -3690 0
-66 3691 0
26 3691 0
66 -26 -3691 0
-3316 3691 0
-3316 3690 0
-3316 3689 0
24 3692 0
25 -15 3692 0
-25 -24 -3692 0
15 -24 -3692 0
-14 3693 0
25 -15 3693 0
14 -25 -3693 0
14 15 -3693 0
-14 3694 0
24 3694 0
14 -24 -3694 0
23 3695 0
-3692 -3693 -3694 3695 0
-23 3694 -3695 0
-23 3693 -3695 0
-23 3692 -3695 0
-13 3696 0
-3692 -3693 -3694 3696 0
13 3694 -3696 0
13 3693 -3696 0
13 3692 -3696 0
-13 3697 0
23 3697 0
13 -23 -3697 0
22 3698 0
-3695 -3696 -3697 3698 0
-22 3697 -3698 0
-22 3696 -3698 0
-22 3695 -3698 0
-12 3699 0
-3695 -3696 -3697 3699 0
12 3697 -3699 0
12 3696 -3699 0
12 3695 -3699 0
-12 3700 0
22 3700 0
12 -22 -3700 0
26 3701 0
-3698 -3699 -3700 3701 0
-26 3700 -3701 0
-26 3699 -3701 0
-26 3698 -3701 0
-16 3702 0
-3698 -3699 -3700 3702 0
16 3700 -3702 0
16 3699 -3702 0
16 3698 -3702 0
-16 3703 0
26 3703 0
16 -26 -3703 0
-3320 3703 0
-3320 3702 0
-3320 3701 0
34 3704 0
35 -45 3704 0
-35 -34 -3704 0
45 -34 -3704 0
-44 3705 0
35 -45 3705 0
44 -35 -3705 0
44 45 -3705 0
-44 3706 0
34 3706 0
44 -34 -3706 0
33 3707 0
-3704 -3705 -3706 3707 0
-33 3706 -3707 0
-33 3705 -3707 0
-33 3704 -3707 0
-43 3708 0
-3704 -3705 -3706 3708 0
43 3706 -3708 0
43 3705 -3708 0
43 3704 -3708 0
-43 3709 0
33 3709 0
43 -33 -3709 0
32 3710 0
-3707 -3708 -3709 3710 0
-32 3709 -3710 0
-32 3708 -3710 0
-32 3707 -3710 0
-42 3711 0
-3707 -3708 -3709 3711 0
42 3709 -3711 0
42 3708 -3711 0
42 3707 -3711 0
-42 3712 0
32 3712 0
42 -32 -3712 0
36 3713 0
-3710 -3711 -3712 3713 0
-36 3712 -3713 0
-36 3711 -3713 0
-36 3710 -3713 0
-46 3714 0
-3710 -3711 -3712 3714 0
46 3712 -3714 0
46 3711 -3714 0
46 3710 -3714 0
-46 3715 0
36 3715 0
46 -36 -3715 0
-3326 3715 0
-3326 3714 0
-3326 3713 0
34 3716 0
35 -95 3716 0
-35 -34 -3716 0
95 -34 -3716 0
-94 3717 0
35 -95 3717 0
94 -35 -3717 0
94 95 -3717 0
-94 3718 0
34 3718 0
94 -34 -3718 0
33 3719 0
-3716 -3717 -3718 3719 0
-33 3718 -3719 0
-33 3717 -3719 0
-33 3716 -3719 0
-93 3720 0
-3716 -3717 -3718 3720 0
93 3718 -3720 0
93 3717 -3720 0
93 3716 -3720 0
-93 3721 0
33 3721 0
93 -33 -3721 0
32 3722 0
-3719 -3720 -3721 3722 0
-32 3721 -3722 0
-32 3720 -3722 0
-32 3719 -3722 0
-92 3723 0
-3719 -3720 -3721 3723 0
92 3721 -3723 0
92 3720 -3723 0
92 3719 -3723 0
-92 3724 0
32 3724 0
92 -32 -3724 0
36 3725 0
-3722 -3723 -3724 3725 0
-36 3724 -3725 0
-36 3723 -3725 0
-36 3722 -3725 0
-96 3726 0
-3722 -3723 -3724 3726 0
96 3724 -3726 0
96 3723 -3726 0
96 3722 -3726 0
-96 3727 0
36 3727 0
96 -36 -3727 0
-3325 3727 0
-3325 3726 0
-3325 3725 0
34 3728 0
35 -85 3728 0
-35 -34 -3728 0
85 -34 -3728 0
-84 3729 0
35 -85 3729 0
84 -35 -3729 0
84 85 -3729 0
-84 3730 0
34 3730 0
84 -34 -3730 0
33 3731 0
-3728 -3729 -3730 3731 0
-33 3730 -3731 0
-33 3729 -3731 0
-33 3728 -3731 0
-83 3732 0
-3728 -3729 -3730 3732 0
83 3730 -3732 0
83 3729 -3732 0
83 3728 -3732 0
-83 3733 0
33 3733 0
83 -33 -3733 0
32 3734 0
-3731 -3732 -3733 3734 0
-32 3733 -3734 0
-32 3732 -3734 0
-32 3731 -3734 0
-82 3735 0
-3731 -3732 -3733 3735 0
82 3733 -3735 0
82 3732 -3735 0
82 3731 -3735 0
-82 3736 0
32 3736 0
82 -32 -3736 0
36 3737 0
-3734 -3735 -3736 3737 0
-36 3736 -3737 0
-36 3735 -3737 0
-36 3734 -3737 0
-86 3738 0
-3734 -3735 -3736 3738 0
86 3736 -3738 0
86 3735 -3738 0
86 3734 -3738 0
-86 3739 0
36 3739 0
86 -36 -3739 0
-3327 3739 0
-3327 3738 0
-3327 3737 0
34 3740 0
35 -75 3740 0
-35 -34 -3740 0
75 -34 -3740 0
-74 3741 0
35 -75 3741 0
74 -35 -3741 0
74 75 -3741 0
-74 3742 0
34 3742 0
74 -34 -3742 0
33 3743 0
-3740 -3741 -3742 3743 0
-33 3742 -3743 0
-33 3741 -3743 0
-33 3740 -3743 0
-73 3744 0
-3740 -3741 -3742 3744 0
73 3742 -3744 0
73 3741 -3744 0
73 3740 -3744 0
-73 3745 0
33 3745 0
73 -33 -3745 0
32 3746 0
-3743 -3744 -3745 3746 0
-32 3745 -3746 0
-32 3744 -3746 0
-32 3743 -3746 0
-72 3747 0
-3743 -3744 -3745 3747 0
72 3745 -3747 0
72 3744 -3747 0
72 3743 -3747 0
-72 3748 0
32 3748 0
72 -32 -3748 0
36 3749 0
-3746 -3747 -3748 3749 0
-36 3748 -3749 0
-36 3747 -3749 0
-36 3746 -3749 0
-76 3750 0
-3746 -3747 -3748 3750 0
76 3748 -3750 0
76 3747 -3750 0
76 3746 -3750 0
-76 3751 0
36 3751 0
76 -36 -3751 0
-3324 3751 0
-3324 3750 0
-3324 3749 0
34 3752 0
35 -25 3752 0
-35 -34 -3752 0
25 -34 -3752 0
-24 3753 0
35 -25 3753 0
24 -35 -3753 0
24 25 -3753 0
-24 3754 0
34 3754 0
24 -34 -3754 0
33 3755 0
-3752 -3753 -3754 3755 0
-33 3754 -3755 0
-33 3753 -3755 0
-33 3752 -3755 0
-23 3756 0
-3752 -3753 -3754 3756 0
23 3754 -3756 0
23 3753 -3756 0
23 3752 -3756 0
-23 3757 0
33 3757 0
23 -33 -3757 0
32 3758 0
-3755 -3756 -3757 3758 0
-32 3757 -3758 0
-32 3756 -3758 0
-32 3755 -3758 0
-22 3759 0
-3755 -3756 -3757 3759 0
22 3757 -3759 0
22 3756 -3759 0
22 3755 -3759 0
-22 3760 0
32 3760 0
22 -32 -3760 0
36 3761 0
-3758 -3759 -3760 3761 0
-36 3760 -3761 0
-36 3759 -3761 0
-36 3758 -3761 0
-26 3762 0
-3758 -3759 -3760 3762 0
26 3760 -3762 0
26 3759 -3762 0
26 3758 -3762 0
-26 3763 0
36 3763 0
26 -36 -3763 0
-3328 3763 0
-3328 3762 0
-3328 3761 0
44 3764 0
45 -95 3764 0
-45 -44 -3764 0
95 -44 -3764 0
-94 3765 0
45 -95 3765 0
94 -45 -3765 0
94 95 -3765 0
-94 3766 0
44 3766 0
94 -44 -3766 0
43 3767 0
-3764 -3765 -3766 3767 0
-43 3766 -3767 0
-43 3765 -3767 0
-43 3764 -3767 0
-93 3768 0
-3764 -3765 -3766 3768 0
93 3766 -3768 0
93 3765 -3768 0
93 3764 -3768 0
-93 3769 0
43 3769 0
93 -43 -3769 0
42 3770 0
-3767 -3768 -3769 3770 0
-42 3769 -3770 0
-42 3768 -3770 0
-42 3767 -3770 0
-92 3771 0
-3767 -3768 -3769 3771 0
92 3769 -3771 0
92 3768 -3771 0
92 3767 -3771 0
-92 3772 0
42 3772 0
92 -42 -3772 0
46 3773 0
-3770 -3771 -3772 3773 0
-46 3772 -3773 0
-46 3771 -3773 0
-46 3770 -3773 0
-96 3774 0
-3770 -3771 -3772 3774 0
96 3772 -3774 0
96 3771 -3774 0
96 3770 -3774 0
-96 3775 0
46 3775 0
96 -46 -3775 0
-3475 3775 0
-3475 3774 0
-3475 3773 0
44 3776 0
45 -85 3776 0
-45 -44 -3776 0
85 -44 -3776 0
-84 3777 0
45 -85 3777 0
84 -45 -3777 0
84 85 -3777 0
-84 3778 0
44 3778 0
84 -44 -3778 0
43 3779 0
-3776 -3777 -3778 3779 0
-43 3778 -3779 0
-43 3777 -3779 0
-43 3776 -3779 0
-83 3780 0
-3776 -3777 -3778 3780 0
83 3778 -3780 0
83 3777 -3780 0
83 3776 -3780 0
-83 3781 0
43 3781 0
83 -43 -3781 0
42 3782 0
-3779 -3780 -3781 3782 0
-42 3781 -3782 0
-42 3780 -3782 0
-42 3779 -3782 0
-82 3783 0
-3779 -3780 -3781 3783 0
82 3781 -3783 0
82 3780 -3783 0
82 3779 -3783 0
-82 3784 0
42 3784 0
82 -42 -3784 0
46 3785 0
-3782 -3783 -3784 3785 0
-46 3784 -3785 0
-46 3783 -3785 0
-46 3782 -3785 0
-86 3786 0
-3782 -3783 -3784 3786 0
86 3784 -3786 0
86 3783 -3786 0
86 3782 -3786 0
-86 3787 0
46 3787 0
86 -46 -3787 0
-3470 3787 0
-3470 3786 0
-3470 3785 0
44 3788 0
45 -35 3788 0
-45 -44 -3788 0
35 -44 -3788 0
-34 3789 0
45 -35 3789 0
34 -45 -3789 0
34 35 -3789 0
-34 3790 0
44 3790 0
34 -44 -3790 0
43 3791 0
-3788 -3789 -3790 3791 0
-43 3790 -3791 0
-43 3789 -3791 0
-43 3788 -3791 0
-33 3792 0
-3788 -3789 -3790 3792 0
33 3790 -3792 0
33 3789 -3792 0
33 3788 -3792 0
-33 3793 0
43 3793 0
33 -43 -3793 0
42 3794 0
-3791 -3792 -3793 3794 0
-42 3793 -3794 0
-42 3792 -3794 0
-42 3791 -3794 0
-32 3795 0
-3791 -3792 -3793 3795 0
32 3793 -3795 0
32 3792 -3795 0
32 3791 -3795 0
-32 3796 0
42 3796 0
32 -42 -3796 0
46 3797 0
-3794 -3795 -3796 3797 0
-46 3796 -3797 0
-46 3795 -3797 0
-46 3794 -3797 0
-36 3798 0
-3794 -3795 -3796 3798 0
36 3796 -3798 0
36 3795 -3798 0
36 3794 -3798 0
-36 3799 0
46 3799 0
36 -46 -3799 0
-3449 3799 0
-3449 3798 0
-3449 3797 0
54 3800 0
55 -2 3800 0
-55 -54 -3800 0
2 -54 -3800 0
-3 3801 0
55 -2 3801 0
3 -55 -3801 0
2 3 -3801 0
-3 3802 0
54 3802 0
3 -54 -3802 0
53 3803 0
-3800 -3801 -3802 3803 0
-53 3802 -3803 0
-53 3801 -3803 0
-53 3800 -3803 0
-4 3804 0
-3800 -3801 -3802 3804 0
4 3802 -3804 0
4 3801 -3804 0
4 3800 -3804 0
-4 3805 0
53 3805 0
4 -53 -3805 0
52 3806 0
-3803 -3804 -3805 3806 0
-52 3805 -3806 0
-52 3804 -3806 0
-52 3803 -3806 0
-5 3807 0
-3803 -3804 -3805 3807 0
5 3805 -3807 0
5 3804 -3807 0
5 3803 -3807 0
-5 3808 0
52 3808 0
5 -52 -3808 0
56 3809 0
-3806 -3807 -3808 3809 0
-56 3808 -3809 0
-56 3807 -3809 0
-56 3806 -3809 0
-6 3810 0
-3806 -3807 -3808 3810 0
6 3808 -3810 0
6 3807 -3810 0
6 3806 -3810 0
-6 3811 0
56 3811 0
6 -56 -3811 0
-3334 3811 0
-3334 3810 0
-3334 3809 0
54 3812 0
55 -15 3812 0
-55 -54 -3812 0
15 -54 -3812 0
-14 3813 0
55 -15 3813 0
14 -55 -3813 0
14 15 -3813 0
-14 3814 0
54 3814 0
14 -54 -3814 0
53 3815 0
-3812 -3813 -3814 3815 0
-53 3814 -3815 0
-53 3813 -3815 0
-53 3812 -3815 0
-13 3816 0
-3812 -3813 -3814 3816 0
13 3814 -3816 0
13 3813 -3816 0
13 3812 -3816 0
-13 3817 0
53 3817 0
13 -53 -3817 0
52 3818 0
-3815 -3816 -3817 3818 0
-52 3817 -3818 0
-52 3816 -3818 0
-52 3815 -3818 0
-12 3819 0
-3815 -3816 -3817 3819 0
12 3817 -3819 0
12 3816 -3819 0
12 3815 -3819 0
-12 3820 0
52 3820 0
12 -52 -3820 0
56 3821 0
-3818 -3819 -3820 3821 0
-56 3820 -3821 0
-56 3819 -3821 0
-56 3818 -3821 0
-16 3822 0
-3818 -3819 -3820 3822 0
16 3820 -3822 0
16 3819 -3822 0
16 3818 -3822 0
-16 3823 0
56 3823 0
16 -56 -3823 0
-3332 3823 0
-3332 3822 0
-3332 3821 0
54 3824 0
55 -65 3824 0
-55 -54 -3824 0
65 -54 -3824 0
-64 3825 0
55 -65 3825 0
64 -55 -3825 0
64 65 -3825 0
-64 3826 0
54 3826 0
64 -54 -3826 0
53 3827 0
-3824 -3825 -3826 3827 0
-53 3826 -3827 0
-53 3825 -3827 0
-53 3824 -3827 0
-63 3828 0
-3824 -3825 -3826 3828 0
63 3826 -3828 0
63 3825 -3828 0
63 3824 -3828 0
-63 3829 0
53 3829 0
63 -53 -3829 0
52 3830 0
-3827 -3828 -3829 3830 0
-52 3829 -3830 0
-52 3828 -3830 0
-52 3827 -3830 0
-62 3831 0
-3827 -3828 -3829 3831 0
62 3829 -3831 0
62 3828 -3831 0
62 3827 -3831 0
-62 3832 0
52 3832 0
62 -52 -3832 0
56 3833 0
-3830 -3831 -3832 3833 0
-56 3832 -3833 0
-56 3831 -3833 0
-56 3830 -3833 0
-66 3834 0
-3830 -3831 -3832 3834 0
66 3832 -3834 0
66 3831 -3834 0
66 3830 -3834 0
-66 3835 0
56 3835 0
66 -56 -3835 0
-3335 3835 0
-3335 3834 0
-3335 3833 0
54 3836 0
55 -115 3836 0
-55 -54 -3836 0
115 -54 -3836 0
-114 3837 0
55 -115 3837 0
114 -55 -3837 0
114 115 -3837 0
-114 3838 0
54 3838 0
114 -54 -3838 0
53 3839 0
-3836 -3837 -3838 3839 0
-53 3838 -3839 0
-53 3837 -3839 0
-53 3836 -3839 0
-113 3840 0
-3836 -3837 -3838 3840 0
113 3838 -3840 0
113 3837 -3840 0
113 3836 -3840 0
-113 3841 0
53 3841 0
113 -53 -3841 0
52 3842 0
-3839 -3840 -3841 3842 0
-52 3841 -3842 0
-52 3840 -3842 0
-52 3839 -3842 0
-112 3843 0
-3839 -3840 -3841 3843 0
112 3841 -3843 0
112 3840 -3843 0
112 3839 -3843 0
-112 3844 0
52 3844 0
112 -52 -3844 0
56 3845 0
-3842 -3843 -3844 3845 0
-56 3844 -3845 0
-56 3843 -3845 0
-56 3842 -3845 0
-116 3846 0
-3842 -3843 -3844 3846 0
116 3844 -3846 0
116 3843 -3846 0
116 3842 -3846 0
-116 3847 0
56 3847 0
116 -56 -3847 0
-3333 3847 0
-3333 3846 0
-3333 3845 0
54 3848 0
55 -105 3848 0
-55 -54 -3848 0
105 -54 -3848 0
-104 3849 0
55 -105 3849 0
104 -55 -3849 0
104 105 -3849 0
-104 3850 0
54 3850 0
104 -54 -3850 0
53 3851 0
-3848 -3849 -3850 3851 0
-53 3850 -3851 0
-53 3849 -3851 0
-53 3848 -3851 0
-103 3852 0
-3848 -3849 -3850 3852 0
103 3850 -3852 0
103 3849 -3852 0
103 3848 -3852 0
-103 3853 0
53 3853 0
103 -53 -3853 0
52 3854 0
-3851 -3852 -3853 3854 0
-52 3853 -3854 0
-52 3852 -3854 0
-52 3851 -3854 0
-102 3855 0
-3851 -3852 -3853 3855 0
102 3853 -3855 0
102 3852 -3855 0
102 3851 -3855 0
-102 3856 0
52 3856 0
102 -52 -3856 0
56 3857 0
-3854 -3855 -3856 3857 0
-56 3856 -3857 0
-56 3855 -3857 0
-56 3854 -3857 0
-106 3858 0
-3854 -3855 -3856 3858 0
106 3856 -3858 0
106 3855 -3858 0
106 3854 -3858 0
-106 3859 0
56 3859 0
106 -56 -3859 0
-3336 3859 0
-3336 3858 0
-3336 3857 0
64 3860 0
65 -15 3860 0
-65 -64 -3860 0
15 -64 -3860 0
-14 3861 0
65 -15 3861 0
14 -65 -3861 0
14 15 -3861 0
-14 3862 0
64 3862 0
14 -64 -3862 0
63 3863 0
-3860 -3861 -3862 3863 0
-63 3862 -3863 0
-63 3861 -3863 0
-63 3860 -3863 0
-13 3864 0
-3860 -3861 -3862 3864 0
13 3862 -3864 0
13 3861 -3864 0
13 3860 -3864 0
-13 3865 0
63 3865 0
13 -63 -3865 0
62 3866 0
-3863 -3864 -3865 3866 0
-62 3865 -3866 0
-62 3864 -3866 0
-62 3863 -3866 0
-12 3867 0
-3863 -3864 -3865 3867 0
12 3865 -3867 0
12 3864 -3867 0
12 3863 -3867 0
-12 3868 0
62 3868 0
12 -62 -3868 0
66 3869 0
-3866 -3867 -3868 3869 0
-66 3868 -3869 0
-66 3867 -3869 0
-66 3866 -3869 0
-16 3870 0
-3866 -3867 -3868 3870 0
16 3868 -3870 0
16 3867 -3870 0
16 3866 -3870 0
-16 3871 0
66 3871 0
16 -66 -3871 0
-3442 3871 0
-3442 3870 0
-3442 3869 0
64 3872 0
65 -25 3872 0
-65 -64 -3872 0
25 -64 -3872 0
-24 3873 0
65 -25 3873 0
24 -65 -3873 0
24 25 -3873 0
-24 3874 0
64 3874 0
24 -64 -3874 0
63 3875 0
-3872 -3873 -3874 3875 0
-63 3874 -3875 0
-63 3873 -3875 0
-63 3872 -3875 0
-23 3876 0
-3872 -3873 -3874 3876 0
23 3874 -3876 0
23 3873 -3876 0
23 3872 -3876 0
-23 3877 0
63 3877 0
23 -63 -3877 0
62 3878 0
-3875 -3876 -3877 3878 0
-62 3877 -3878 0
-62 3876 -3878 0
-62 3875 -3878 0
-22 3879 0
-3875 -3876 -3877 3879 0
22 3877 -3879 0
22 3876 -3879 0
22 3875 -3879 0
-22 3880 0
62 3880 0
22 -62 -3880 0
66 3881 0
-3878 -3879 -3880 3881 0
-66 3880 -3881 0
-66 3879 -3881 0
-66 3878 -3881 0
-26 3882 0
-3878 -3879 -3880 3882 0
26 3880 -3882 0
26 3879 -3882 0
26 3878 -3882 0
-26 3883 0
66 3883 0
26 -66 -3883 0
-3445 3883 0
-3445 3882 0
-3445 3881 0
64 3884 0
65 -75 3884 0
-65 -64 -3884 0
75 -64 -3884 0
-74 3885 0
65 -75 3885 0
74 -65 -3885 0
74 75 -3885 0
-74 3886 0
64 3886 0
74 -64 -3886 0
63 3887 0
-3884 -3885 -3886 3887 0
-63 3886 -3887 0
-63 3885 -3887 0
-63 3884 -3887 0
-73 3888 0
-3884 -3885 -3886 3888 0
73 3886 -3888 0
73 3885 -3888 0
73 3884 -3888 0
-73 3889 0
63 3889 0
73 -63 -3889 0
62 3890 0
-3887 -3888 -3889 3890 0
-62 3889 -3890 0
-62 3888 -3890 0
-62 3887 -3890 0
-72 3891 0
-3887 -3888 -3889 3891 0
72 3889 -3891 0
72 3888 -3891 0
72 3887 -3891 0
-72 3892 0
62 3892 0
72 -62 -3892 0
66 3893 0
-3890 -3891 -3892 3893 0
-66 3892 -3893 0
-66 3891 -3893 0
-66 3890 -3893 0
-76 3894 0
-3890 -3891 -3892 3894 0
76 3892 -3894 0
76 3891 -3894 0
76 3890 -3894 0
-76 3895 0
66 3895 0
76 -66 -3895 0
-3464 3895 0
-3464 3894 0
-3464 3893 0
64 3896 0
65 -125 3896 0
-65 -64 -3896 0
125 -64 -3896 0
-124 3897 0
65 -125 3897 0
124 -65 -3897 0
124 125 -3897 0
-124 3898 0
64 3898 0
124 -64 -3898 0
63 3899 0
-3896 -3897 -3898 3899 0
-63 3898 -3899 0
-63 3897 -3899 0
-63 3896 -3899 0
-123 3900 0
-3896 -3897 -3898 3900 0
123 3898 -3900 0
123 3897 -3900 0
123 3896 -3900 0
-123 3901 0
63 3901 0
123 -63 -3901 0
62 3902 0
-3899 -3900 -3901 3902 0
-62 3901 -3902 0
-62 3900 -3902 0
-62 3899 -3902 0
-122 3903 0
-3899 -3900 -3901 3903 0
122 3901 -3903 0
122 3900 -3903 0
122 3899 -3903 0
-122 3904 0
62 3904 0
122 -62 -3904 0
66 3905 0
-3902 -3903 -3904 3905 0
-66 3904 -3905 0
-66 3903 -3905 0
-66 3902 -3905 0
-126 3906 0
-3902 -3903 -3904 3906 0
126 3904 -3906 0
126 3903 -3906 0
126 3902 -3906 0
-126 3907 0
66 3907 0
126 -66 -3907 0
-3489 3907 0
-3489 3906 0
-3489 3905 0
64 3908 0
65 -115 3908 0
-65 -64 -3908 0
115 -64 -3908 0
-114 3909 0
65 -115 3909 0
114 -65 -3909 0
114 115 -3909 0
-114 3910 0
64 3910 0
114 -64 -3910 0
63 3911 0
-3908 -3909 -3910 3911 0
-63 3910 -3911 0
-63 3909 -3911 0
-63 3908 -3911 0
-113 3912 0
-3908 -3909 -3910 3912 0
113 3910 -3912 0
113 3909 -3912 0
113 3908 -3912 0
-113 3913 0
63 3913 0
113 -63 -3913 0
62 3914 0
-3911 -3912 -3913 3914 0
-62 3913 -3914 0
-62 3912 -3914 0
-62 3911 -3914 0
-112 3915 0
-3911 -3912 -3913 3915 0
112 3913 -3915 0
112 3912 -3915 0
112 3911 -3915 0
-112 3916 0
62 3916 0
112 -62 -3916 0
66 3917 0
-3914 -3915 -3916 3917 0
-66 3916 -3917 0
-66 3915 -3917 0
-66 3914 -3917 0
-116 3918 0
-3914 -3915 -3916 3918 0
116 3916 -3918 0
116 3915 -3918 0
116 3914 -3918 0
-116 3919 0
66 3919 0
116 -66 -3919 0
-3483 3919 0
-3483 3918 0
-3483 3917 0
64 3920 0
65 -105 3920 0
-65 -64 -3920 0
105 -64 -3920 0
-104 3921 0
65 -105 3921 0
104 -65 -3921 0
104 105 -3921 0
-104 3922 0
64 3922 0
104 -64 -3922 0
63 3923 0
-3920 -3921 -3922 3923 0
-63 3922 -3923 0
-63 3921 -3923 0
-63 3920 -3923 0
-103 3924 0
-3920 -3921 -3922 3924 0
103 3922 -3924 0
103 3921 -3924 0
103 3920 -3924 0
-103 3925 0
63 3925 0
103 -63 -3925 0
62 3926 0
-3923 -3924 -3925 3926 0
-62 3925 -3926 0
-62 3924 -3926 0
-62 3923 -3926 0
-102 3927 0
-3923 -3924 -3925 3927 0
102 3925 -3927 0
102 3924 -3927 0
102 3923 -3927 0
-102 3928 0
62 3928 0
102 -62 -3928 0
66 3929 0
-3926 -3927 -3928 3929 0
-66 3928 -3929 0
-66 3927 -3929 0
-66 3926 -3929 0
-106 3930 0
-3926 -3927 -3928 3930 0
106 3928 -3930 0
106 3927 -3930 0
106 3926 -3930 0
-106 3931 0
66 3931 0
106 -66 -3931 0
-3479 3931 0
-3479 3930 0
-3479 3929 0
64 3932 0
65 -55 3932 0
-65 -64 -3932 0
55 -64 -3932 0
-54 3933 0
65 -55 3933 0
54 -65 -3933 0
54 55 -3933 0
-54 3934 0
64 3934 0
54 -64 -3934 0
63 3935 0
-3932 -3933 -3934 3935 0
-63 3934 -3935 0
-63 3933 -3935 0
-63 3932 -3935 0
-53 3936 0
-3932 -3933 -3934 3936 0
53 3934 -3936 0
53 3933 -3936 0
53 3932 -3936 0
-53 3937 0
63 3937 0
53 -63 -3937 0
62 3938 0
-3935 -3936 -3937 3938 0
-62 3937 -3938 0
-62 3936 -3938 0
-62 3935 -3938 0
-52 3939 0
-3935 -3936 -3937 3939 0
52 3937 -3939 0
52 3936 -3939 0
52 3935 -3939 0
-52 3940 0
62 3940 0
52 -62 -3940 0
66 3941 0
-3938 -3939 -3940 3941 0
-66 3940 -3941 0
-66 3939 -3941 0
-66 3938 -3941 0
-56 3942 0
-3938 -3939 -3940 3942 0
56 3940 -3942 0
56 3939 -3942 0
56 3938 -3942 0
-56 3943 0
66 3943 0
56 -66 -3943 0
-3456 3943 0
-3456 3942 0
-3456 3941 0
64 3944 0
65 -2 3944 0
-65 -64 -3944 0
2 -64 -3944 0
-3 3945 0
65 -2 3945 0
3 -65 -3945 0
2 3 -3945 0
-3 3946 0
64 3946 0
3 -64 -3946 0
63 3947 0
-3944 -3945 -3946 3947 0
-63 3946 -3947 0
-63 3945 -3947 0
-63 3944 -3947 0
-4 3948 0
-3944 -3945 -3946 3948 0
4 3946 -3948 0
4 3945 -3948 0
4 3944 -3948 0
-4 3949 0
63 3949 0
4 -63 -3949 0
62 3950 0
-3947 -3948 -3949 3950 0
-62 3949 -3950 0
-62 3948 -3950 0
-62 3947 -3950 0
-5 3951 0
-3947 -3948 -3949 3951 0
5 3949 -3951 0
5 3948 -3951 0
5 3947 -3951 0
-5 3952 0
62 3952 0
5 -62 -3952 0
66 3953 0
-3950 -3951 -3952 3953 0
-66 3952 -3953 0
-66 3951 -3953 0
-66 3950 -3953 0
-6 3954 0
-3950 -3951 -3952 3954 0
6 3952 -3954 0
6 3951 -3954 0
6 3950 -3954 0
-6 3955 0
66 3955 0
6 -66 -3955 0
-3440 3955 0
-3440 3954 0
-3440 3953 0
74 3956 0
75 -25 3956 0
-75 -74 -3956 0
25 -74 -3956 0
-24 3957 0
75 -25 3957 0
24 -75 -3957 0
24 25 -3957 0
-24 3958 0
74 3958 0
24 -74 -3958 0
73 3959 0
-3956 -3957 -3958 3959 0
-73 3958 -3959 0
-73 3957 -3959 0
-73 3956 -3959 0
-23 3960 0
-3956 -3957 -3958 3960 0
23 3958 -3960 0
23 3957 -3960 0
23 3956 -3960 0
-23 3961 0
73 3961 0
23 -73 -3961 0
72 3962 0
-3959 -3960 -3961 3962 0
-72 3961 -3962 0
-72 3960 -3962 0
-72 3959 -3962 0
-22 3963 0
-3959 -3960 -3961 3963 0
22 3961 -3963 0
22 3960 -3963 0
22 3959 -3963 0
-22 3964 0
72 3964 0
22 -72 -3964 0
76 3965 0
-3962 -3963 -3964 3965 0
-76 3964 -3965 0
-76 3963 -3965 0
-76 3962 -3965 0
-26 3966 0
-3962 -3963 -3964 3966 0
26 3964 -3966 0
26 3963 -3966 0
26 3962 -3966 0
-26 3967 0
76 3967 0
26 -76 -3967 0
-3446 3967 0
-3446 3966 0
-3446 3965 0
74 3968 0
75 -35 3968 0
-75 -74 -3968 0
35 -74 -3968 0
-34 3969 0
75 -35 3969 0
34 -75 -3969 0
34 35 -3969 0
-34 3970 0
74 3970 0
34 -74 -3970 0
73 3971 0
-3968 -3969 -3970 3971 0
-73 3970 -3971 0
-73 3969 -3971 0
-73 3968 -3971 0
-33 3972 0
-3968 -3969 -3970 3972 0
33 3970 -3972 0
33 3969 -3972 0
33 3968 -3972 0
-33 3973 0
73 3973 0
33 -73 -3973 0
72 3974 0
-3971 -3972 -3973 3974 0
-72 3973 -3974 0
-72 3972 -3974 0
-72 3971 -3974 0
-32 3975 0
-3971 -3972 -3973 3975 0
32 3973 -3975 0
32 3972 -3975 0
32 3971 -3975 0
-32 3976 0
72 3976 0
32 -72 -3976 0
76 3977 0
-3974 -3975 -3976 3977 0
-76 3976 -3977 0
-76 3975 -3977 0
-76 3974 -3977 0
-36 3978 0
-3974 -3975 -3976 3978 0
36 3976 -3978 0
36 3975 -3978 0
36 3974 -3978 0
-36 3979 0
76 3979 0
36 -76 -3979 0
-3450 3979 0
-3450 3978 0
-3450 3977 0
74 3980 0
75 -85 3980 0
-75 -74 -3980 0
85 -74 -3980 0
-84 3981 0
75 -85 3981 0
84 -75 -3981 0
84 85 -3981 0
-84 3982 0
74 3982 0
84 -74 -3982 0
73 3983 0
-3980 -3981 -3982 3983 0
-73 3982 -3983 0
-73 3981 -3983 0
-73 3980 -3983 0
-83 3984 0
-3980 -3981 -3982 3984 0
83 3982 -3984 0
83 3981 -3984 0
83 3980 -3984 0
-83 3985 0
73 3985 0
83 -73 -3985 0
72 3986 0
-3983 -3984 -3985 3986 0
-72 3985 -3986 0
-72 3984 -3986 0
-72 3983 -3986 0
-82 3987 0
-3983 -3984 -3985 3987 0
82 3985 -3987 0
82 3984 -3987 0
82 3983 -3987 0
-82 3988 0
72 3988 0
82 -72 -3988 0
76 3989 0
-3986 -3987 -3988 3989 0
-76 3988 -3989 0
-76 3987 -3989 0
-76 3986 -3989 0
-86 3990 0
-3986 -3987 -3988 3990 0
86 3988 -3990 0
86 3987 -3990 0
86 3986 -3990 0
-86 3991 0
76 3991 0
86 -76 -3991 0
-3471 3991 0
-3471 3990 0
-3471 3989 0
74 3992 0
75 -135 3992 0
-75 -74 -3992 0
135 -74 -3992 0
-134 3993 0
75 -135 3993 0
134 -75 -3993 0
134 135 -3993 0
-134 3994 0
74 3994 0
134 -74 -3994 0
73 3995 0
-3992 -3993 -3994 3995 0
-73 3994 -3995 0
-73 3993 -3995 0
-73 3992 -3995 0
-133 3996 0
-3992 -3993 -3994 3996 0
133 3994 -3996 0
133 3993 -3996 0
133 3992 -3996 0
-133 3997 0
73 3997 0
133 -73 -3997 0
72 3998 0
-3995 -3996 -3997 3998 0
-72 3997 -3998 0
-72 3996 -3998 0
-72 3995 -3998 0
-132 3999 0
-3995 -3996 -3997 3999 0
132 3997 -3999 0
132 3996 -3999 0
132 3995 -3999 0
-132 4000 0
72 4000 0
132 -72 -4000 0
76 4001 0
-3998 -3999 -4000 4001 0
-76 4000 -4001 0
-76 3999 -4001 0
-76 3998 -4001 0
-136 4002 0
-3998 -3999 -4000 4002 0
136 4000 -4002 0
136 3999 -4002 0
136 3998 -4002 0
-136 4003 0
76 4003 0
136 -76 -4003 0
-3498 4003 0
-3498 4002 0
-3498 4001 0
74 4004 0
75 -125 4004 0
-75 -74 -4004 0
125 -74 -4004 0
-124 4005 0
75 -125 4005 0
124 -75 -4005 0
124 125 -4005 0
-124 4006 0
74 4006 0
124 -74 -4006 0
73 4007 0
-4004 -4005 -4006 4007 0
-73 4006 -4007 0
-73 4005 -4007 0
-73 4004 -4007 0
-123 4008 0
-4004 -4005 -4006 4008 0
123 4006 -4008 0
123 4005 -4008 0
123 4004 -4008 0
-123 4009 0
73 4009 0
123 -73 -4009 0
72 4010 0
-4007 -4008 -4009 4010 0
-72 4009 -4010 0
-72 4008 -4010 0
-72 4007 -4010 0
-122 4011 0
-4007 -4008 -4009 4011 0
122 4009 -4011 0
122 4008 -4011 0
122 4007 -4011 0
-122 4012 0
72 4012 0
122 -72 -4012 0
76 4013 0
-4010 -4011 -4012 4013 0
-76 4012 -4013 0
-76 4011 -4013 0
-76 4010 -4013 0
-126 4014 0
-4010 -4011 -4012 4014 0
126 4012 -4014 0
126 4011 -4014 0
126 4010 -4014 0
-126 4015 0
76 4015 0
126 -76 -4015 0
-3490 4015 0
-3490 4014 0
-3490 4013 0
74 4016 0
75 -115 4016 0
-75 -74 -4016 0
115 -74 -4016 0
-114 4017 0
75 -115 4017 0
114 -75 -4017 0
114 115 -4017 0
-114 4018 0
74 4018 0
114 -74 -4018 0
73 4019 0
-4016 -4017 -4018 4019 0
-73 4018 -4019 0
-73 4017 -4019 0
-73 4016 -4019 0
-113 4020 0
-4016 -4017 -4018 4020 0
113 4018 -4020 0
113 4017 -4020 0
113 4016 -4020 0
-113 4021 0
73 4021 0
113 -73 -4021 0
72 4022 0
-4019 -4020 -4021 4022 0
-72 4021 -4022 0
-72 4020 -4022 0
-72 4019 -4022 0
-112 4023 0
-4019 -4020 -4021 4023 0
112 4021 -4023 0
112 4020 -4023 0
112 4019 -4023 0
-112 4024 0
72 4024 0
112 -72 -4024 0
76 4025 0
-4022 -4023 -4024 4025 0
-76 4024 -4025 0
-76 4023 -4025 0
-76 4022 -4025 0
-116 4026 0
-4022 -4023 -4024 4026 0
116 4024 -4026 0
116 4023 -4026 0
116 4022 -4026 0
-116 4027 0
76 4027 0
116 -76 -4027 0
-3484 4027 0
-3484 4026 0
-3484 4025 0
74 4028 0
75 -65 4028 0
-75 -74 -4028 0
65 -74 -4028 0
-64 4029 0
75 -65 4029 0
64 -75 -4029 0
64 65 -4029 0
-64 4030 0
74 4030 0
64 -74 -4030 0
73 4031 0
-4028 -4029 -4030 4031 0
-73 4030 -4031 0
-73 4029 -4031 0
-73 4028 -4031 0
-63 4032 0
-4028 -4029 -4030 4032 0
63 4030 -4032 0
63 4029 -4032 0
63 4028 -4032 0
-63 4033 0
73 4033 0
63 -73 -4033 0
72 4034 0
-4031 -4032 -4033 4034 0
-72 4033 -4034 0
-72 4032 -4034 0
-72 4031 -4034 0
-62 4035 0
-4031 -4032 -4033 4035 0
62 4033 -4035 0
62 4032 -4035 0
62 4031 -4035 0
-62 4036 0
72 4036 0
62 -72 -4036 0
76 4037 0
-4034 -4035 -4036 4037 0
-76 4036 -4037 0
-76 4035 -4037 0
-76 4034 -4037 0
-66 4038 0
-4034 -4035 -4036 4038 0
66 4036 -4038 0
66 4035 -4038 0
66 4034 -4038 0
-66 4039 0
76 4039 0
66 -76 -4039 0
-3460 4039 0
-3460 4038 0
-3460 4037 0
74 4040 0
75 -15 4040 0
-75 -74 -4040 0
15 -74 -4040 0
-14 4041 0
75 -15 4041 0
14 -75 -4041 0
14 15 -4041 0
-14 4042 0
74 4042 0
14 -74 -4042 0
73 4043 0
-4040 -4041 -4042 4043 0
-73 4042 -4043 0
-73 4041 -4043 0
-73 4040 -4043 0
-13 4044 0
-4040 -4041 -4042 4044 0
13 4042 -4044 0
13 4041 -4044 0
13 4040 -4044 0
-13 4045 0
73 4045 0
13 -73 -4045 0
72 4046 0
-4043 -4044 -4045 4046 0
-72 4045 -4046 0
-72 4044 -4046 0
-72 4043 -4046 0
-12 4047 0
-4043 -4044 -4045 4047 0
12 4045 -4047 0
12 4044 -4047 0
12 4043 -4047 0
-12 4048 0
72 4048 0
12 -72 -4048 0
76 4049 0
-4046 -4047 -4048 4049 0
-76 4048 -4049 0
-76 4047 -4049 0
-76 4046 -4049 0
-16 4050 0
-4046 -4047 -4048 4050 0
16 4048 -4050 0
16 4047 -4050 0
16 4046 -4050 0
-16 4051 0
76 4051 0
16 -76 -4051 0
-3443 4051 0
-3443 4050 0
-3443 4049 0
84 4052 0
85 -35 4052 0
-85 -84 -4052 0
35 -84 -4052 0
-34 4053 0
85 -35 4053 0
34 -85 -4053 0
34 35 -4053 0
-34 4054 0
84 4054 0
34 -84 -4054 0
83 4055 0
-4052 -4053 -4054 4055 0
-83 4054 -4055 0
-83 4053 -4055 0
-83 4052 -4055 0
-33 4056 0
-4052 -4053 -4054 4056 0
33 4054 -4056 0
33 4053 -4056 0
33 4052 -4056 0
-33 4057 0
83 4057 0
33 -83 -4057 0
82 4058 0
-4055 -4056 -4057 4058 0
-82 4057 -4058 0
-82 4056 -4058 0
-82 4055 -4058 0
-32 4059 0
-4055 -4056 -4057 4059 0
32 4057 -4059 0
32 4056 -4059 0
32 4055 -4059 0
-32 4060 0
82 4060 0
32 -82 -4060 0
86 4061 0
-4058 -4059 -4060 4061 0
-86 4060 -4061 0
-86 4059 -4061 0
-86 4058 -4061 0
-36 4062 0
-4058 -4059 -4060 4062 0
36 4060 -4062 0
36 4059 -4062 0
36 4058 -4062 0
-36 4063 0
86 4063 0
36 -86 -4063 0
-3451 4063 0
-3451 4062 0
-3451 4061 0
84 4064 0
85 -45 4064 0
-85 -84 -4064 0
45 -84 -4064 0
-44 4065 0
85 -45 4065 0
44 -85 -4065 0
44 45 -4065 0
-44 4066 0
84 4066 0
44 -84 -4066 0
83 4067 0
-4064 -4065 -4066 4067 0
-83 4066 -4067 0
-83 4065 -4067 0
-83 4064 -4067 0
-43 4068 0
-4064 -4065 -4066 4068 0
43 4066 -4068 0
43 4065 -4068 0
43 4064 -4068 0
-43 4069 0
83 4069 0
43 -83 -4069 0
82 4070 0
-4067 -4068 -4069 4070 0
-82 4069 -4070 0
-82 4068 -4070 0
-82 4067 -4070 0
-42 4071 0
-4067 -4068 -4069 4071 0
42 4069 -4071 0
42 4068 -4071 0
42 4067 -4071 0
-42 4072 0
82 4072 0
42 -82 -4072 0
86 4073 0
-4070 -4071 -4072 4073 0
-86 4072 -4073 0
-86 4071 -4073 0
-86 4070 -4073 0
-46 4074 0
-4070 -4071 -4072 4074 0
46 4072 -4074 0
46 4071 -4074 0
46 4070 -4074 0
-46 4075 0
86 4075 0
46 -86 -4075 0
-3454 4075 0
-3454 4074 0
-3454 4073 0
84 4076 0
85 -95 4076 0
-85 -84 -4076 0
95 -84 -4076 0
-94 4077 0
85 -95 4077 0
94 -85 -4077 0
94 95 -4077 0
-94 4078 0
84 4078 0
94 -84 -4078 0
83 4079 0
-4076 -4077 -4078 4079 0
-83 4078 -4079 0
-83 4077 -4079 0
-83 4076 -4079 0
-93 4080 0
-4076 -4077 -4078 4080 0
93 4078 -4080 0
93 4077 -4080 0
93 4076 -4080 0
-93 4081 0
83 4081 0
93 -83 -4081 0
82 4082 0
-4079 -4080 -4081 4082 0
-82 4081 -4082 0
-82 4080 -4082 0
-82 4079 -4082 0
-92 4083 0
-4079 -4080 -4081 4083 0
92 4081 -4083 0
92 4080 -4083 0
92 4079 -4083 0
-92 4084 0
82 4084 0
92 -82 -4084 0
86 4085 0
-4082 -4083 -4084 4085 0
-86 4084 -4085 0
-86 4083 -4085 0
-86 4082 -4085 0
-96 4086 0
-4082 -4083 -4084 4086 0
96 4084 -4086 0
96 4083 -4086 0
96 4082 -4086 0
-96 4087 0
86 4087 0
96 -86 -4087 0
-3476 4087 0
-3476 4086 0
-3476 4085 0
84 4088 0
85 -145 4088 0
-85 -84 -4088 0
145 -84 -4088 0
-144 4089 0
85 -145 4089 0
144 -85 -4089 0
144 145 -4089 0
-144 4090 0
84 4090 0
144 -84 -4090 0
83 4091 0
-4088 -4089 -4090 4091 0
-83 4090 -4091 0
-83 4089 -4091 0
-83 4088 -4091 0
-143 4092 0
-4088 -4089 -4090 4092 0
143 4090 -4092 0
143 4089 -4092 0
143 4088 -4092 0
-143 4093 0
83 4093 0
143 -83 -4093 0
82 4094 0
-4091 -4092 -4093 4094 0
-82 4093 -4094 0
-82 4092 -4094 0
-82 4091 -4094 0
-142 4095 0
-4091 -4092 -4093 4095 0
142 4093 -4095 0
142 4092 -4095 0
142 4091 -4095 0
-142 4096 0
82 4096 0
142 -82 -4096 0
86 4097 0
-4094 -4095 -4096 4097 0
-86 4096 -4097 0
-86 4095 -4097 0
-86 4094 -4097 0
-146 4098 0
-4094 -4095 -4096 4098 0
146 4096 -4098 0
146 4095 -4098 0
146 4094 -4098 0
-146 4099 0
86 4099 0
146 -86 -4099 0
-3504 4099 0
-3504 4098 0
-3504 4097 0
84 4100 0
85 -135 4100 0
-85 -84 -4100 0
135 -84 -4100 0
-134 4101 0
85 -135 4101 0
134 -85 -4101 0
134 135 -4101 0
-134 4102 0
84 4102 0
134 -84 -4102 0
83 4103 0
-4100 -4101 -4102 4103 0
-83 4102 -4103 0
-83 4101 -4103 0
-83 4100 -4103 0
-133 4104 0
-4100 -4101 -4102 4104 0
133 4102 -4104 0
133 4101 -4104 0
133 4100 -4104 0
-133 4105 0
83 4105 0
133 -83 -4105 0
82 4106 0
-4103 -4104 -4105 4106 0
-82 4105 -4106 0
-82 4104 -4106 0
-82 4103 -4106 0
-132 4107 0
-4103 -4104 -4105 4107 0
132 4105 -4107 0
132 4104 -4107 0
132 4103 -4107 0
-132 4108 0
82 4108 0
132 -82 -4108 0
86 4109 0
-4106 -4107 -4108 4109 0
-86 4108 -4109 0
-86 4107 -4109 0
-86 4106 -4109 0
-136 4110 0
-4106 -4107 -4108 4110 0
136 4108 -4110 0
136 4107 -4110 0
136 4106 -4110 0
-136 4111 0
86 4111 0
136 -86 -4111 0
-3499 4111 0
-3499 4110 0
-3499 4109 0
84 4112 0
85 -125 4112 0
-85 -84 -4112 0
125 -84 -4112 0
-124 4113 0
85 -125 4113 0
124 -85 -4113 0
124 125 -4113 0
-124 4114 0
84 4114 0
124 -84 -4114 0
83 4115 0
-4112 -4113 -4114 4115 0
-83 4114 -4115 0
-83 4113 -4115 0
-83 4112 -4115 0
-123 4116 0
-4112 -4113 -4114 4116 0
123 4114 -4116 0
123 4113 -4116 0
123 4112 -4116 0
-123 4117 0
83 4117 0
123 -83 -4117 0
82 4118 0
-4115 -4116 -4117 4118 0
-82 4117 -4118 0
-82 4116 -4118 0
-82 4115 -4118 0
-122 4119 0
-4115 -4116 -4117 4119 0
122 4117 -4119 0
122 4116 -4119 0
122 4115 -4119 0
-122 4120 0
82 4120 0
122 -82 -4120 0
86 4121 0
-4118 -4119 -4120 4121 0
-86 4120 -4121 0
-86 4119 -4121 0
-86 4118 -4121 0
-126 4122 0
-4118 -4119 -4120 4122 0
126 4120 -4122 0
126 4119 -4122 0
126 4118 -4122 0
-126 4123 0
86 4123 0
126 -86 -4123 0
-3491 4123 0
-3491 4122 0
-3491 4121 0
84 4124 0
85 -75 4124 0
-85 -84 -4124 0
75 -84 -4124 0
-74 4125 0
85 -75 4125 0
74 -85 -4125 0
74 75 -4125 0
-74 4126 0
84 4126 0
74 -84 -4126 0
83 4127 0
-4124 -4125 -4126 4127 0
-83 4126 -4127 0
-83 4125 -4127 0
-83 4124 -4127 0
-73 4128 0
-4124 -4125 -4126 4128 0
73 4126 -4128 0
73 4125 -4128 0
73 4124 -4128 0
-73 4129 0
83 4129 0
73 -83 -4129 0
82 4130 0
-4127 -4128 -4129 4130 0
-82 4129 -4130 0
-82 4128 -4130 0
-82 4127 -4130 0
-72 4131 0
-4127 -4128 -4129 4131 0
72 4129 -4131 0
72 4128 -4131 0
72 4127 -4131 0
-72 4132 0
82 4132 0
72 -82 -4132 0
86 4133 0
-4130 -4131 -4132 4133 0
-86 4132 -4133 0
-86 4131 -4133 0
-86 4130 -4133 0
-76 4134 0
-4130 -4131 -4132 4134 0
76 4132 -4134 0
76 4131 -4134 0
76 4130 -4134 0
-76 4135 0
86 4135 0
76 -86 -4135 0
-3465 4135 0
-3465 4134 0
-3465 4133 0
84 4136 0
85 -25 4136 0
-85 -84 -4136 0
25 -84 -4136 0
-24 4137 0
85 -25 4137 0
24 -85 -4137 0
24 25 -4137 0
-24 4138 0
84 4138 0
24 -84 -4138 0
83 4139 0
-4136 -4137 -4138 4139 0
-83 4138 -4139 0
-83 4137 -4139 0
-83 4136 -4139 0
-23 4140 0
-4136 -4137 -4138 4140 0
23 4138 -4140 0
23 4137 -4140 0
23 4136 -4140 0
-23 4141 0
83 4141 0
23 -83 -4141 0
82 4142 0
-4139 -4140 -4141 4142 0
-82 4141 -4142 0
-82 4140 -4142 0
-82 4139 -4142 0
-22 4143 0
-4139 -4140 -4141 4143 0
22 4141 -4143 0
22 4140 -4143 0
22 4139 -4143 0
-22 4144 0
82 4144 0
22 -82 -4144 0
86 4145 0
-4142 -4143 -4144 4145 0
-86 4144 -4145 0
-86 4143 -4145 0
-86 4142 -4145 0
-26 4146 0
-4142 -4143 -4144 4146 0
26 4144 -4146 0
26 4143 -4146 0
26 4142 -4146 0
-26 4147 0
86 4147 0
26 -86 -4147 0
-3447 4147 0
-3447 4146 0
-3447 4145 0
94 4148 0
95 -45 4148 0
-95 -94 -4148 0
45 -94 -4148 0
-44 4149 0
95 -45 4149 0
44 -95 -4149 0
44 45 -4149 0
-44 4150 0
94 4150 0
44 -94 -4150 0
93 4151 0
-4148 -4149 -4150 4151 0
-93 4150 -4151 0
-93 4149 -4151 0
-93 4148 -4151 0
-43 4152 0
-4148 -4149 -4150 4152 0
43 4150 -4152 0
43 4149 -4152 0
43 4148 -4152 0
-43 4153 0
93 4153 0
43 -93 -4153 0
92 4154 0
-4151 -4152 -4153 4154 0
-92 4153 -4154 0
-92 4152 -4154 0
-92 4151 -4154 0
-42 4155 0
-4151 -4152 -4153 4155 0
42 4153 -4155 0
42 4152 -4155 0
42 4151 -4155 0
-42 4156 0
92 4156 0
42 -92 -4156 0
96 4157 0
-4154 -4155 -4156 4157 0
-96 4156 -4157 0
-96 4155 -4157 0
-96 4154 -4157 0
-46 4158 0
-4154 -4155 -4156 4158 0
46 4156 -4158 0
46 4155 -4158 0
46 4154 -4158 0
-46 4159 0
96 4159 0
46 -96 -4159 0
-3354 4159 0
-3354 4158 0
-3354 4157 0
94 4160 0
95 -145 4160 0
-95 -94 -4160 0
145 -94 -4160 0
-144 4161 0
95 -145 4161 0
144 -95 -4161 0
144 145 -4161 0
-144 4162 0
94 4162 0
144 -94 -4162 0
93 4163 0
-4160 -4161 -4162 4163 0
-93 4162 -4163 0
-93 4161 -4163 0
-93 4160 -4163 0
-143 4164 0
-4160 -4161 -4162 4164 0
143 4162 -4164 0
143 4161 -4164 0
143 4160 -4164 0
-143 4165 0
93 4165 0
143 -93 -4165 0
92 4166 0
-4163 -4164 -4165 4166 0
-92 4165 -4166 0
-92 4164 -4166 0
-92 4163 -4166 0
-142 4167 0
-4163 -4164 -4165 4167 0
142 4165 -4167 0
142 4164 -4167 0
142 4163 -4167 0
-142 4168 0
92 4168 0
142 -92 -4168 0
96 4169 0
-4166 -4167 -4168 4169 0
-96 4168 -4169 0
-96 4167 -4169 0
-96 4166 -4169 0
-146 4170 0
-4166 -4167 -4168 4170 0
146 4168 -4170 0
146 4167 -4170 0
146 4166 -4170 0
-146 4171 0
96 4171 0
146 -96 -4171 0
-3355 4171 0
-3355 4170 0
-3355 4169 0
94 4172 0
95 -135 4172 0
-95 -94 -4172 0
135 -94 -4172 0
-134 4173 0
95 -135 4173 0
134 -95 -4173 0
134 135 -4173 0
-134 4174 0
94 4174 0
134 -94 -4174 0
93 4175 0
-4172 -4173 -4174 4175 0
-93 4174 -4175 0
-93 4173 -4175 0
-93 4172 -4175 0
-133 4176 0
-4172 -4173 -4174 4176 0
133 4174 -4176 0
133 4173 -4176 0
133 4172 -4176 0
-133 4177 0
93 4177 0
133 -93 -4177 0
92 4178 0
-4175 -4176 -4177 4178 0
-92 4177 -4178 0
-92 4176 -4178 0
-92 4175 -4178 0
-132 4179 0
-4175 -4176 -4177 4179 0
132 4177 -4179 0
132 4176 -4179 0
132 4175 -4179 0
-132 4180 0
92 4180 0
132 -92 -4180 0
96 4181 0
-4178 -4179 -4180 4181 0
-96 4180 -4181 0
-96 4179 -4181 0
-96 4178 -4181 0
-136 4182 0
-4178 -4179 -4180 4182 0
136 4180 -4182 0
136 4179 -4182 0
136 4178 -4182 0
-136 4183 0
96 4183 0
136 -96 -4183 0
-3353 4183 0
-3353 4182 0
-3353 4181 0
94 4184 0
95 -85 4184 0
-95 -94 -4184 0
85 -94 -4184 0
-84 4185 0
95 -85 4185 0
84 -95 -4185 0
84 85 -4185 0
-84 4186 0
94 4186 0
84 -94 -4186 0
93 4187 0
-4184 -4185 -4186 4187 0
-93 4186 -4187 0
-93 4185 -4187 0
-93 4184 -4187 0
-83 4188 0
-4184 -4185 -4186 4188 0
83 4186 -4188 0
83 4185 -4188 0
83 4184 -4188 0
-83 4189 0
93 4189 0
83 -93 -4189 0
92 4190 0
-4187 -4188 -4189 4190 0
-92 4189 -4190 0
-92 4188 -4190 0
-92 4187 -4190 0
-82 4191 0
-4187 -4188 -4189 4191 0
82 4189 -4191 0
82 4188 -4191 0
82 4187 -4191 0
-82 4192 0
92 4192 0
82 -92 -4192 0
96 4193 0
-4190 -4191 -4192 4193 0
-96 4192 -4193 0
-96 4191 -4193 0
-96 4190 -4193 0
-86 4194 0
-4190 -4191 -4192 4194 0
86 4192 -4194 0
86 4191 -4194 0
86 4190 -4194 0
-86 4195 0
96 4195 0
86 -96 -4195 0
-3356 4195 0
-3356 4194 0
-3356 4193 0
94 4196 0
95 -35 4196 0
-95 -94 -4196 0
35 -94 -4196 0
-34 4197 0
95 -35 4197 0
34 -95 -4197 0
34 35 -4197 0
-34 4198 0
94 4198 0
34 -94 -4198 0
93 4199 0
-4196 -4197 -4198 4199 0
-93 4198 -4199 0
-93 4197 -4199 0
-93 4196 -4199 0
-33 4200 0
-4196 -4197 -4198 4200 0
33 4198 -4200 0
33 4197 -4200 0
33 4196 -4200 0
-33 4201 0
93 4201 0
33 -93 -4201 0
92 4202 0
-4199 -4200 -4201 4202 0
-92 4201 -4202 0
-92 4200 -4202 0
-92 4199 -4202 0
-32 4203 0
-4199 -4200 -4201 4203 0
32 4201 -4203 0
32 4200 -4203 0
32 4199 -4203 0
-32 4204 0
92 4204 0
32 -92 -4204 0
96 4205 0
-4202 -4203 -4204 4205 0
-96 4204 -4205 0
-96 4203 -4205 0
-96 4202 -4205 0
-36 4206 0
-4202 -4203 -4204 4206 0
36 4204 -4206 0
36 4203 -4206 0
36 4202 -4206 0
-36 4207 0
96 4207 0
36 -96 -4207 0
-3352 4207 0
-3352 4206 0
-3352 4205 0
104 4208 0
105 -55 4208 0
-105 -104 -4208 0
55 -104 -4208 0
-54 4209 0
105 -55 4209 0
54 -105 -4209 0
54 55 -4209 0
-54 4210 0
104 4210 0
54 -104 -4210 0
103 4211 0
-4208 -4209 -4210 4211 0
-103 4210 -4211 0
-103 4209 -4211 0
-103 4208 -4211 0
-53 4212 0
-4208 -4209 -4210 4212 0
53 4210 -4212 0
53 4209 -4212 0
53 4208 -4212 0
-53 4213 0
103 4213 0
53 -103 -4213 0
102 4214 0
-4211 -4212 -4213 4214 0
-102 4213 -4214 0
-102 4212 -4214 0
-102 4211 -4214 0
-52 4215 0
-4211 -4212 -4213 4215 0
52 4213 -4215 0
52 4212 -4215 0
52 4211 -4215 0
-52 4216 0
102 4216 0
52 -102 -4216 0
106 4217 0
-4214 -4215 -4216 4217 0
-106 4216 -4217 0
-106 4215 -4217 0
-106 4214 -4217 0
-56 4218 0
-4214 -4215 -4216 4218 0
56 4216 -4218 0
56 4215 -4218 0
56 4214 -4218 0
-56 4219 0
106 4219 0
56 -106 -4219 0
-3362 4219 0
-3362 4218 0
-3362 4217 0
104 4220 0
105 -65 4220 0
-105 -104 -4220 0
65 -104 -4220 0
-64 4221 0
105 -65 4221 0
64 -105 -4221 0
64 65 -4221 0
-64 4222 0
104 4222 0
64 -104 -4222 0
103 4223 0
-4220 -4221 -4222 4223 0
-103 4222 -4223 0
-103 4221 -4223 0
-103 4220 -4223 0
-63 4224 0
-4220 -4221 -4222 4224 0
63 4222 -4224 0
63 4221 -4224 0
63 4220 -4224 0
-63 4225 0
103 4225 0
63 -103 -4225 0
102 4226 0
-4223 -4224 -4225 4226 0
-102 4225 -4226 0
-102 4224 -4226 0
-102 4223 -4226 0
-62 4227 0
-4223 -4224 -4225 4227 0
62 4225 -4227 0
62 4224 -4227 0
62 4223 -4227 0
-62 4228 0
102 4228 0
62 -102 -4228 0
106 4229 0
-4226 -4227 -4228 4229 0
-106 4228 -4229 0
-106 4227 -4229 0
-106 4226 -4229 0
-66 4230 0
-4226 -4227 -4228 4230 0
66 4228 -4230 0
66 4227 -4230 0
66 4226 -4230 0
-66 4231 0
106 4231 0
66 -106 -4231 0
-3360 4231 0
-3360 4230 0
-3360 4229 0
104 4232 0
105 -115 4232 0
-105 -104 -4232 0
115 -104 -4232 0
-114 4233 0
105 -115 4233 0
114 -105 -4233 0
114 115 -4233 0
-114 4234 0
104 4234 0
114 -104 -4234 0
103 4235 0
-4232 -4233 -4234 4235 0
-103 4234 -4235 0
-103 4233 -4235 0
-103 4232 -4235 0
-113 4236 0
-4232 -4233 -4234 4236 0
113 4234 -4236 0
113 4233 -4236 0
113 4232 -4236 0
-113 4237 0
103 4237 0
113 -103 -4237 0
102 4238 0
-4235 -4236 -4237 4238 0
-102 4237 -4238 0
-102 4236 -4238 0
-102 4235 -4238 0
-112 4239 0
-4235 -4236 -4237 4239 0
112 4237 -4239 0
112 4236 -4239 0
112 4235 -4239 0
-112 4240 0
102 4240 0
112 -102 -4240 0
106 4241 0
-4238 -4239 -4240 4241 0
-106 4240 -4241 0
-106 4239 -4241 0
-106 4238 -4241 0
-116 4242 0
-4238 -4239 -4240 4242 0
116 4240 -4242 0
116 4239 -4242 0
116 4238 -4242 0
-116 4243 0
106 4243 0
116 -106 -4243 0
-3363 4243 0
-3363 4242 0
-3363 4241 0
104 4244 0
105 -165 4244 0
-105 -104 -4244 0
165 -104 -4244 0
-164 4245 0
105 -165 4245 0
164 -105 -4245 0
164 165 -4245 0
-164 4246 0
104 4246 0
164 -104 -4246 0
103 4247 0
-4244 -4245 -4246 4247 0
-103 4246 -4247 0
-103 4245 -4247 0
-103 4244 -4247 0
-163 4248 0
-4244 -4245 -4246 4248 0
163 4246 -4248 0
163 4245 -4248 0
163 4244 -4248 0
-163 4249 0
103 4249 0
163 -103 -4249 0
102 4250 0
-4247 -4248 -4249 4250 0
-102 4249 -4250 0
-102 4248 -4250 0
-102 4247 -4250 0
-162 4251 0
-4247 -4248 -4249 4251 0
162 4249 -4251 0
162 4248 -4251 0
162 4247 -4251 0
-162 4252 0
102 4252 0
162 -102 -4252 0
106 4253 0
-4250 -4251 -4252 4253 0
-106 4252 -4253 0
-106 4251 -4253 0
-106 4250 -4253 0
-166 4254 0
-4250 -4251 -4252 4254 0
166 4252 -4254 0
166 4251 -4254 0
166 4250 -4254 0
-166 4255 0
106 4255 0
166 -106 -4255 0
-3361 4255 0
-3361 4254 0
-3361 4253 0
104 4256 0
105 -155 4256 0
-105 -104 -4256 0
155 -104 -4256 0
-154 4257 0
105 -155 4257 0
154 -105 -4257 0
154 155 -4257 0
-154 4258 0
104 4258 0
154 -104 -4258 0
103 4259 0
-4256 -4257 -4258 4259 0
-103 4258 -4259 0
-103 4257 -4259 0
-103 4256 -4259 0
-153 4260 0
-4256 -4257 -4258 4260 0
153 4258 -4260 0
153 4257 -4260 0
153 4256 -4260 0
-153 4261 0
103 4261 0
153 -103 -4261 0
102 4262 0
-4259 -4260 -4261 4262 0
-102 4261 -4262 0
-102 4260 -4262 0
-102 4259 -4262 0
-152 4263 0
-4259 -4260 -4261 4263 0
152 4261 -4263 0
152 4260 -4263 0
152 4259 -4263 0
-152 4264 0
102 4264 0
152 -102 -4264 0
106 4265 0
-4262 -4263 -4264 4265 0
-106 4264 -4265 0
-106 4263 -4265 0
-106 4262 -4265 0
-156 4266 0
-4262 -4263 -4264 4266 0
156 4264 -4266 0
156 4263 -4266 0
156 4262 -4266 0
-156 4267 0
106 4267 0
156 -106 -4267 0
-3364 4267 0
-3364 4266 0
-3364 4265 0
114 4268 0
115 -65 4268 0
-115 -114 -4268 0
65 -114 -4268 0
-64 4269 0
115 -65 4269 0
64 -115 -4269 0
64 65 -4269 0
-64 4270 0
114 4270 0
64 -114 -4270 0
113 4271 0
-4268 -4269 -4270 4271 0
-113 4270 -4271 0
-113 4269 -4271 0
-113 4268 -4271 0
-63 4272 0
-4268 -4269 -4270 4272 0
63 4270 -4272 0
63 4269 -4272 0
63 4268 -4272 0
-63 4273 0
113 4273 0
63 -113 -4273 0
112 4274 0
-4271 -4272 -4273 4274 0
-112 4273 -4274 0
-112 4272 -4274 0
-112 4271 -4274 0
-62 4275 0
-4271 -4272 -4273 4275 0
62 4273 -4275 0
62 4272 -4275 0
62 4271 -4275 0
-62 4276 0
112 4276 0
62 -112 -4276 0
116 4277 0
-4274 -4275 -4276 4277 0
-116 4276 -4277 0
-116 4275 -4277 0
-116 4274 -4277 0
-66 4278 0
-4274 -4275 -4276 4278 0
66 4276 -4278 0
66 4275 -4278 0
66 4274 -4278 0
-66 4279 0
116 4279 0
66 -116 -4279 0
-3461 4279 0
-3461 4278 0
-3461 4277 0
114 4280 0
115 -75 4280 0
-115 -114 -4280 0
75 -114 -4280 0
-74 4281 0
115 -75 4281 0
74 -115 -4281 0
74 75 -4281 0
-74 4282 0
114 4282 0
74 -114 -4282 0
113 4283 0
-4280 -4281 -4282 4283 0
-113 4282 -4283 0
-113 4281 -4283 0
-113 4280 -4283 0
-73 4284 0
-4280 -4281 -4282 4284 0
73 4282 -4284 0
73 4281 -4284 0
73 4280 -4284 0
-73 4285 0
113 4285 0
73 -113 -4285 0
112 4286 0
-4283 -4284 -4285 4286 0
-112 4285 -4286 0
-112 4284 -4286 0
-112 4283 -4286 0
-72 4287 0
-4283 -4284 -4285 4287 0
72 4285 -4287 0
72 4284 -4287 0
72 4283 -4287 0
-72 4288 0
112 4288 0
72 -112 -4288 0
116 4289 0
-4286 -4287 -4288 4289 0
-116 4288 -4289 0
-116 4287 -4289 0
-116 4286 -4289 0
-76 4290 0
-4286 -4287 -4288 4290 0
76 4288 -4290 0
76 4287 -4290 0
76 4286 -4290 0
-76 4291 0
116 4291 0
76 -116 -4291 0
-3466 4291 0
-3466 4290 0
-3466 4289 0
114 4292 0
115 -125 4292 0
-115 -114 -4292 0
125 -114 -4292 0
-124 4293 0
115 -125 4293 0
124 -115 -4293 0
124 125 -4293 0
-124 4294 0
114 4294 0
124 -114 -4294 0
113 4295 0
-4292 -4293 -4294 4295 0
-113 4294 -4295 0
-113 4293 -4295 0
-113 4292 -4295 0
-123 4296 0
-4292 -4293 -4294 4296 0
123 4294 -4296 0
123 4293 -4296 0
123 4292 -4296 0
-123 4297 0
113 4297 0
123 -113 -4297 0
112 4298 0
-4295 -4296 -4297 4298 0
-112 4297 -4298 0
-112 4296 -4298 0
-112 4295 -4298 0
-122 4299 0
-4295 -4296 -4297 4299 0
122 4297 -4299 0
122 4296 -4299 0
122 4295 -4299 0
-122 4300 0
112 4300 0
122 -112 -4300 0
116 4301 0
-4298 -4299 -4300 4301 0
-116 4300 -4301 0
-116 4299 -4301 0
-116 4298 -4301 0
-126 4302 0
-4298 -4299 -4300 4302 0
126 4300 -4302 0
126 4299 -4302 0
126 4298 -4302 0
-126 4303 0
116 4303 0
126 -116 -4303 0
-3492 4303 0
-3492 4302 0
-3492 4301 0
114 4304 0
115 -175 4304 0
-115 -114 -4304 0
175 -114 -4304 0
-174 4305 0
115 -175 4305 0
174 -115 -4305 0
174 175 -4305 0
-174 4306 0
114 4306 0
174 -114 -4306 0
113 4307 0
-4304 -4305 -4306 4307 0
-113 4306 -4307 0
-113 4305 -4307 0
-113 4304 -4307 0
-173 4308 0
-4304 -4305 -4306 4308 0
173 4306 -4308 0
173 4305 -4308 0
173 4304 -4308 0
-173 4309 0
113 4309 0
173 -113 -4309 0
112 4310 0
-4307 -4308 -4309 4310 0
-112 4309 -4310 0
-112 4308 -4310 0
-112 4307 -4310 0
-172 4311 0
-4307 -4308 -4309 4311 0
172 4309 -4311 0
172 4308 -4311 0
172 4307 -4311 0
-172 4312 0
112 4312 0
172 -112 -4312 0
116 4313 0
-4310 -4311 -4312 4313 0
-116 4312 -4313 0
-116 4311 -4313 0
-116 4310 -4313 0
-176 4314 0
-4310 -4311 -4312 4314 0
176 4312 -4314 0
176 4311 -4314 0
176 4310 -4314 0
-176 4315 0
116 4315 0
176 -116 -4315 0
-3517 4315 0
-3517 4314 0
-3517 4313 0
114 4316 0
115 -165 4316 0
-115 -114 -4316 0
165 -114 -4316 0
-164 4317 0
115 -165 4317 0
164 -115 -4317 0
164 165 -4317 0
-164 4318 0
114 4318 0
164 -114 -4318 0
113 4319 0
-4316 -4317 -4318 4319 0
-113 4318 -4319 0
-113 4317 -4319 0
-113 4316 -4319 0
-163 4320 0
-4316 -4317 -4318 4320 0
163 4318 -4320 0
163 4317 -4320 0
163 4316 -4320 0
-163 4321 0
113 4321 0
163 -113 -4321 0
112 4322 0
-4319 -4320 -4321 4322 0
-112 4321 -4322 0
-112 4320 -4322 0
-112 4319 -4322 0
-162 4323 0
-4319 -4320 -4321 4323 0
162 4321 -4323 0
162 4320 -4323 0
162 4319 -4323 0
-162 4324 0
112 4324 0
162 -112 -4324 0
116 4325 0
-4322 -4323 -4324 4325 0
-116 4324 -4325 0
-116 4323 -4325 0
-116 4322 -4325 0
-166 4326 0
-4322 -4323 -4324 4326 0
166 4324 -4326 0
166 4323 -4326 0
166 4322 -4326 0
-166 4327 0
116 4327 0
166 -116 -4327 0
-3512 4327 0
-3512 4326 0
-3512 4325 0
114 4328 0
115 -155 4328 0
-115 -114 -4328 0
155 -114 -4328 0
-154 4329 0
115 -155 4329 0
154 -115 -4329 0
154 155 -4329 0
-154 4330 0
114 4330 0
154 -114 -4330 0
113 4331 0
-4328 -4329 -4330 4331 0
-113 4330 -4331 0
-113 4329 -4331 0
-113 4328 -4331 0
-153 4332 0
-4328 -4329 -4330 4332 0
153 4330 -4332 0
153 4329 -4332 0
153 4328 -4332 0
-153 4333 0
113 4333 0
153 -113 -4333 0
112 4334 0
-4331 -4332 -4333 4334 0
-112 4333 -4334 0
-112 4332 -4334 0
-112 4331 -4334 0
-152 4335 0
-4331 -4332 -4333 4335 0
152 4333 -4335 0
152 4332 -4335 0
152 4331 -4335 0
-152 4336 0
112 4336 0
152 -112 -4336 0
116 4337 0
-4334 -4335 -4336 4337 0
-116 4336 -4337 0
-116 4335 -4337 0
-116 4334 -4337 0
-156 4338 0
-4334 -4335 -4336 4338 0
156 4336 -4338 0
156 4335 -4338 0
156 4334 -4338 0
-156 4339 0
116 4339 0
156 -116 -4339 0
-3508 4339 0
-3508 4338 0
-3508 4337 0
114 4340 0
115 -105 4340 0
-115 -114 -4340 0
105 -114 -4340 0
-104 4341 0
115 -105 4341 0
104 -115 -4341 0
104 105 -4341 0
-104 4342 0
114 4342 0
104 -114 -4342 0
113 4343 0
-4340 -4341 -4342 4343 0
-113 4342 -4343 0
-113 4341 -4343 0
-113 4340 -4343 0
-103 4344 0
-4340 -4341 -4342 4344 0
103 4342 -4344 0
103 4341 -4344 0
103 4340 -4344 0
-103 4345 0
113 4345 0
103 -113 -4345 0
112 4346 0
-4343 -4344 -4345 4346 0
-112 4345 -4346 0
-112 4344 -4346 0
-112 4343 -4346 0
-102 4347 0
-4343 -4344 -4345 4347 0
102 4345 -4347 0
102 4344 -4347 0
102 4343 -4347 0
-102 4348 0
112 4348 0
102 -112 -4348 0
116 4349 0
-4346 -4347 -4348 4349 0
-116 4348 -4349 0
-116 4347 -4349 0
-116 4346 -4349 0
-106 4350 0
-4346 -4347 -4348 4350 0
106 4348 -4350 0
106 4347 -4350 0
106 4346 -4350 0
-106 4351 0
116 4351 0
106 -116 -4351 0
-3480 4351 0
-3480 4350 0
-3480 4349 0
114 4352 0
115 -55 4352 0
-115 -114 -4352 0
55 -114 -4352 0
-54 4353 0
115 -55 4353 0
54 -115 -4353 0
54 55 -4353 0
-54 4354 0
114 4354 0
54 -114 -4354 0
113 4355 0
-4352 -4353 -4354 4355 0
-113 4354 -4355 0
-113 4353 -4355 0
-113 4352 -4355 0
-53 4356 0
-4352 -4353 -4354 4356 0
53 4354 -4356 0
53 4353 -4356 0
53 4352 -4356 0
-53 4357 0
113 4357 0
53 -113 -4357 0
112 4358 0
-4355 -4356 -4357 4358 0
-112 4357 -4358 0
-112 4356 -4358 0
-112 4355 -4358 0
-52 4359 0
-4355 -4356 -4357 4359 0
52 4357 -4359 0
52 4356 -4359 0
52 4355 -4359 0
-52 4360 0
112 4360 0
52 -112 -4360 0
116 4361 0
-4358 -4359 -4360 4361 0
-116 4360 -4361 0
-116 4359 -4361 0
-116 4358 -4361 0
-56 4362 0
-4358 -4359 -4360 4362 0
56 4360 -4362 0
56 4359 -4362 0
56 4358 -4362 0
-56 4363 0
116 4363 0
56 -116 -4363 0
-3457 4363 0
-3457 4362 0
-3457 4361 0
124 4364 0
125 -75 4364 0
-125 -124 -4364 0
75 -124 -4364 0
-74 4365 0
125 -75 4365 0
74 -125 -4365 0
74 75 -4365 0
-74 4366 0
124 4366 0
74 -124 -4366 0
123 4367 0
-4364 -4365 -4366 4367 0
-123 4366 -4367 0
-123 4365 -4367 0
-123 4364 -4367 0
-73 4368 0
-4364 -4365 -4366 4368 0
73 4366 -4368 0
73 4365 -4368 0
73 4364 -4368 0
-73 4369 0
123 4369 0
73 -123 -4369 0
122 4370 0
-4367 -4368 -4369 4370 0
-122 4369 -4370 0
-122 4368 -4370 0
-122 4367 -4370 0
-72 4371 0
-4367 -4368 -4369 4371 0
72 4369 -4371 0
72 4368 -4371 0
72 4367 -4371 0
-72 4372 0
122 4372 0
72 -122 -4372 0
126 4373 0
-4370 -4371 -4372 4373 0
-126 4372 -4373 0
-126 4371 -4373 0
-126 4370 -4373 0
-76 4374 0
-4370 -4371 -4372 4374 0
76 4372 -4374 0
76 4371 -4374 0
76 4370 -4374 0
-76 4375 0
126 4375 0
76 -126 -4375 0
-3467 4375 0
-3467 4374 0
-3467 4373 0
124 4376 0
125 -85 4376 0
-125 -124 -4376 0
85 -124 -4376 0
-84 4377 0
125 -85 4377 0
84 -125 -4377 0
84 85 -4377 0
-84 4378 0
124 4378 0
84 -124 -4378 0
123 4379 0
-4376 -4377 -4378 4379 0
-123 4378 -4379 0
-123 4377 -4379 0
-123 4376 -4379 0
-83 4380 0
-4376 -4377 -4378 4380 0
83 4378 -4380 0
83 4377 -4380 0
83 4376 -4380 0
-83 4381 0
123 4381 0
83 -123 -4381 0
122 4382 0
-4379 -4380 -4381 4382 0
-122 4381 -4382 0
-122 4380 -4382 0
-122 4379 -4382 0
-82 4383 0
-4379 -4380 -4381 4383 0
82 4381 -4383 0
82 4380 -4383 0
82 4379 -4383 0
-82 4384 0
122 4384 0
82 -122 -4384 0
126 4385 0
-4382 -4383 -4384 4385 0
-126 4384 -4385 0
-126 4383 -4385 0
-126 4382 -4385 0
-86 4386 0
-4382 -4383 -4384 4386 0
86 4384 -4386 0
86 4383 -4386 0
86 4382 -4386 0
-86 4387 0
126 4387 0
86 -126 -4387 0
-3472 4387 0
-3472 4386 0
-3472 4385 0
124 4388 0
125 -135 4388 0
-125 -124 -4388 0
135 -124 -4388 0
-134 4389 0
125 -135 4389 0
134 -125 -4389 0
134 135 -4389 0
-134 4390 0
124 4390 0
134 -124 -4390 0
123 4391 0
-4388 -4389 -4390 4391 0
-123 4390 -4391 0
-123 4389 -4391 0
-123 4388 -4391 0
-133 4392 0
-4388 -4389 -4390 4392 0
133 4390 -4392 0
133 4389 -4392 0
133 4388 -4392 0
-133 4393 0
123 4393 0
133 -123 -4393 0
122 4394 0
-4391 -4392 -4393 4394 0
-122 4393 -4394 0
-122 4392 -4394 0
-122 4391 -4394 0
-132 4395 0
-4391 -4392 -4393 4395 0
132 4393 -4395 0
132 4392 -4395 0
132 4391 -4395 0
-132 4396 0
122 4396 0
132 -122 -4396 0
126 4397 0
-4394 -4395 -4396 4397 0
-126 4396 -4397 0
-126 4395 -4397 0
-126 4394 -4397 0
-136 4398 0
-4394 -4395 -4396 4398 0
136 4396 -4398 0
136 4395 -4398 0
136 4394 -4398 0
-136 4399 0
126 4399 0
136 -126 -4399 0
-3500 4399 0
-3500 4398 0
-3500 4397 0
124 4400 0
125 -185 4400 0
-125 -124 -4400 0
185 -124 -4400 0
-184 4401 0
125 -185 4401 0
184 -125 -4401 0
184 185 -4401 0
-184 4402 0
124 4402 0
184 -124 -4402 0
123 4403 0
-4400 -4401 -4402 4403 0
-123 4402 -4403 0
-123 4401 -4403 0
-123 4400 -4403 0
-183 4404 0
-4400 -4401 -4402 4404 0
183 4402 -4404 0
183 4401 -4404 0
183 4400 -4404 0
-183 4405 0
123 4405 0
183 -123 -4405 0
122 4406 0
-4403 -4404 -4405 4406 0
-122 4405 -4406 0
-122 4404 -4406 0
-122 4403 -4406 0
-182 4407 0
-4403 -4404 -4405 4407 0
182 4405 -4407 0
182 4404 -4407 0
182 4403 -4407 0
-182 4408 0
122 4408 0
182 -122 -4408 0
126 4409 0
-4406 -4407 -4408 4409 0
-126 4408 -4409 0
-126 4407 -4409 0
-126 4406 -4409 0
-186 4410 0
-4406 -4407 -4408 4410 0
186 4408 -4410 0
186 4407 -4410 0
186 4406 -4410 0
-186 4411 0
126 4411 0
186 -126 -4411 0
-3523 4411 0
-3523 4410 0
-3523 4409 0
124 4412 0
125 -175 4412 0
-125 -124 -4412 0
175 -124 -4412 0
-174 4413 0
125 -175 4413 0
174 -125 -4413 0
174 175 -4413 0
-174 4414 0
124 4414 0
174 -124 -4414 0
123 4415 0
-4412 -4413 -4414 4415 0
-123 4414 -4415 0
-123 4413 -4415 0
-123 4412 -4415 0
-173 4416 0
-4412 -4413 -4414 4416 0
173 4414 -4416 0
173 4413 -4416 0
173 4412 -4416 0
-173 4417 0
123 4417 0
173 -123 -4417 0
122 4418 0
-4415 -4416 -4417 4418 0
-122 4417 -4418 0
-122 4416 -4418 0
-122 4415 -4418 0
-172 4419 0
-4415 -4416 -4417 4419 0
172 4417 -4419 0
172 4416 -4419 0
172 4415 -4419 0
-172 4420 0
122 4420 0
172 -122 -4420 0
126 4421 0
-4418 -4419 -4420 4421 0
-126 4420 -4421 0
-126 4419 -4421 0
-126 4418 -4421 0
-176 4422 0
-4418 -4419 -4420 4422 0
176 4420 -4422 0
176 4419 -4422 0
176 4418 -4422 0
-176 4423 0
126 4423 0
176 -126 -4423 0
-3518 4423 0
-3518 4422 0
-3518 4421 0
124 4424 0
125 -165 4424 0
-125 -124 -4424 0
165 -124 -4424 0
-164 4425 0
125 -165 4425 0
164 -125 -4425 0
164 165 -4425 0
-164 4426 0
124 4426 0
164 -124 -4426 0
123 4427 0
-4424 -4425 -4426 4427 0
-123 4426 -4427 0
-123 4425 -4427 0
-123 4424 -4427 0
-163 4428 0
-4424 -4425 -4426 4428 0
163 4426 -4428 0
163 4425 -4428 0
163 4424 -4428 0
-163 4429 0
123 4429 0
163 -123 -4429 0
122 4430 0
-4427 -4428 -4429 4430 0
-122 4429 -4430 0
-122 4428 -4430 0
-122 4427 -4430 0
-162 4431 0
-4427 -4428 -4429 4431 0
162 4429 -4431 0
162 4428 -4431 0
162 4427 -4431 0
-162 4432 0
122 4432 0
162 -122 -4432 0
126 4433 0
-4430 -4431 -4432 4433 0
-126 4432 -4433 0
-126 4431 -4433 0
-126 4430 -4433 0
-166 4434 0
-4430 -4431 -4432 4434 0
166 4432 -4434 0
166 4431 -4434 0
166 4430 -4434 0
-166 4435 0
126 4435 0
166 -126 -4435 0
-3513 4435 0
-3513 4434 0
-3513 4433 0
124 4436 0
125 -115 4436 0
-125 -124 -4436 0
115 -124 -4436 0
-114 4437 0
125 -115 4437 0
114 -125 -4437 0
114 115 -4437 0
-114 4438 0
124 4438 0
114 -124 -4438 0
123 4439 0
-4436 -4437 -4438 4439 0
-123 4438 -4439 0
-123 4437 -4439 0
-123 4436 -4439 0
-113 4440 0
-4436 -4437 -4438 4440 0
113 4438 -4440 0
113 4437 -4440 0
113 4436 -4440 0
-113 4441 0
123 4441 0
113 -123 -4441 0
122 4442 0
-4439 -4440 -4441 4442 0
-122 4441 -4442 0
-122 4440 -4442 0
-122 4439 -4442 0
-112 4443 0
-4439 -4440 -4441 4443 0
112 4441 -4443 0
112 4440 -4443 0
112 4439 -4443 0
-112 4444 0
122 4444 0
112 -122 -4444 0
126 4445 0
-4442 -4443 -4444 4445 0
-126 4444 -4445 0
-126 4443 -4445 0
-126 4442 -4445 0
-116 4446 0
-4442 -4443 -4444 4446 0
116 4444 -4446 0
116 4443 -4446 0
116 4442 -4446 0
-116 4447 0
126 4447 0
116 -126 -4447 0
-3485 4447 0
-3485 4446 0
-3485 4445 0
124 4448 0
125 -65 4448 0
-125 -124 -4448 0
65 -124 -4448 0
-64 4449 0
125 -65 4449 0
64 -125 -4449 0
64 65 -4449 0
-64 4450 0
124 4450 0
64 -124 -4450 0
123 4451 0
-4448 -4449 -4450 4451 0
-123 4450 -4451 0
-123 4449 -4451 0
-123 4448 -4451 0
-63 4452 0
-4448 -4449 -4450 4452 0
63 4450 -4452 0
63 4449 -4452 0
63 4448 -4452 0
-63 4453 0
123 4453 0
63 -123 -4453 0
122 4454 0
-4451 -4452 -4453 4454 0
-122 4453 -4454 0
-122 4452 -4454 0
-122 4451 -4454 0
-62 4455 0
-4451 -4452 -4453 4455 0
62 4453 -4455 0
62 4452 -4455 0
62 4451 -4455 0
-62 4456 0
122 4456 0
62 -122 -4456 0
126 4457 0
-4454 -4455 -4456 4457 0
-126 4456 -4457 0
-126 4455 -4457 0
-126 4454 -4457 0
-66 4458 0
-4454 -4455 -4456 4458 0
66 4456 -4458 0
66 4455 -4458 0
66 4454 -4458 0
-66 4459 0
126 4459 0
66 -126 -4459 0
-3462 4459 0
-3462 4458 0
-3462 4457 0
134 4460 0
135 -85 4460 0
-135 -134 -4460 0
85 -134 -4460 0
-84 4461 0
135 -85 4461 0
84 -135 -4461 0
84 85 -4461 0
-84 4462 0
134 4462 0
84 -134 -4462 0
133 4463 0
-4460 -4461 -4462 4463 0
-133 4462 -4463 0
-133 4461 -4463 0
-133 4460 -4463 0
-83 4464 0
-4460 -4461 -4462 4464 0
83 4462 -4464 0
83 4461 -4464 0
83 4460 -4464 0
-83 4465 0
133 4465 0
83 -133 -4465 0
132 4466 0
-4463 -4464 -4465 4466 0
-132 4465 -4466 0
-132 4464 -4466 0
-132 4463 -4466 0
-82 4467 0
-4463 -4464 -4465 4467 0
82 4465 -4467 0
82 4464 -4467 0
82 4463 -4467 0
-82 4468 0
132 4468 0
82 -132 -4468 0
136 4469 0
-4466 -4467 -4468 4469 0
-136 4468 -4469 0
-136 4467 -4469 0
-136 4466 -4469 0
-86 4470 0
-4466 -4467 -4468 4470 0
86 4468 -4470 0
86 4467 -4470 0
86 4466 -4470 0
-86 4471 0
136 4471 0
86 -136 -4471 0
-3473 4471 0
-3473 4470 0
-3473 4469 0
134 4472 0
135 -95 4472 0
-135 -134 -4472 0
95 -134 -4472 0
-94 4473 0
135 -95 4473 0
94 -135 -4473 0
94 95 -4473 0
-94 4474 0
134 4474 0
94 -134 -4474 0
133 4475 0
-4472 -4473 -4474 4475 0
-133 4474 -4475 0
-133 4473 -4475 0
-133 4472 -4475 0
-93 4476 0
-4472 -4473 -4474 4476 0
93 4474 -4476 0
93 4473 -4476 0
93 4472 -4476 0
-93 4477 0
133 4477 0
93 -133 -4477 0
132 4478 0
-4475 -4476 -4477 4478 0
-132 4477 -4478 0
-132 4476 -4478 0
-132 4475 -4478 0
-92 4479 0
-4475 -4476 -4477 4479 0
92 4477 -4479 0
92 4476 -4479 0
92 4475 -4479 0
-92 4480 0
132 4480 0
92 -132 -4480 0
136 4481 0
-4478 -4479 -4480 4481 0
-136 4480 -4481 0
-136 4479 -4481 0
-136 4478 -4481 0
-96 4482 0
-4478 -4479 -4480 4482 0
96 4480 -4482 0
96 4479 -4482 0
96 4478 -4482 0
-96 4483 0
136 4483 0
96 -136 -4483 0
-3477 4483 0
-3477 4482 0
-3477 4481 0
134 4484 0
135 -145 4484 0
-135 -134 -4484 0
145 -134 -4484 0
-144 4485 0
135 -145 4485 0
144 -135 -4485 0
144 145 -4485 0
-144 4486 0
134 4486 0
144 -134 -4486 0
133 4487 0
-4484 -4485 -4486 4487 0
-133 4486 -4487 0
-133 4485 -4487 0
-133 4484 -4487 0
-143 4488 0
-4484 -4485 -4486 4488 0
143 4486 -4488 0
143 4485 -4488 0
143 4484 -4488 0
-143 4489 0
133 4489 0
143 -133 -4489 0
132 4490 0
-4487 -4488 -4489 4490 0
-132 4489 -4490 0
-132 4488 -4490 0
-132 4487 -4490 0
-142 4491 0
-4487 -4488 -4489 4491 0
142 4489 -4491 0
142 4488 -4491 0
142 4487 -4491 0
-142 4492 0
132 4492 0
142 -132 -4492 0
136 4493 0
-4490 -4491 -4492 4493 0
-136 4492 -4493 0
-136 4491 -4493 0
-136 4490 -4493 0
-146 4494 0
-4490 -4491 -4492 4494 0
146 4492 -4494 0
146 4491 -4494 0
146 4490 -4494 0
-146 4495 0
136 4495 0
146 -136 -4495 0
-3505 4495 0
-3505 4494 0
-3505 4493 0
134 4496 0
135 -195 4496 0
-135 -134 -4496 0
195 -134 -4496 0
-194 4497 0
135 -195 4497 0
194 -135 -4497 0
194 195 -4497 0
-194 4498 0
134 4498 0
194 -134 -4498 0
133 4499 0
-4496 -4497 -4498 4499 0
-133 4498 -4499 0
-133 4497 -4499 0
-133 4496 -4499 0
-193 4500 0
-4496 -4497 -4498 4500 0
193 4498 -4500 0
193 4497 -4500 0
193 4496 -4500 0
-193 4501 0
133 4501 0
193 -133 -4501 0
132 4502 0
-4499 -4500 -4501 4502 0
-132 4501 -4502 0
-132 4500 -4502 0
-132 4499 -4502 0
-192 4503 0
-4499 -4500 -4501 4503 0
192 4501 -4503 0
192 4500 -4503 0
192 4499 -4503 0
-192 4504 0
132 4504 0
192 -132 -4504 0
136 4505 0
-4502 -4503 -4504 4505 0
-136 4504 -4505 0
-136 4503 -4505 0
-136 4502 -4505 0
-196 4506 0
-4502 -4503 -4504 4506 0
196 4504 -4506 0
196 4503 -4506 0
196 4502 -4506 0
-196 4507 0
136 4507 0
196 -136 -4507 0
-3528 4507 0
-3528 4506 0
-3528 4505 0
134 4508 0
135 -185 4508 0
-135 -134 -4508 0
185 -134 -4508 0
-184 4509 0
135 -185 4509 0
184 -135 -4509 0
184 185 -4509 0
-184 4510 0
134 4510 0
184 -134 -4510 0
133 4511 0
-4508 -4509 -4510 4511 0
-133 4510 -4511 0
-133 4509 -4511 0
-133 4508 -4511 0
-183 4512 0
-4508 -4509 -4510 4512 0
183 4510 -4512 0
183 4509 -4512 0
183 4508 -4512 0
-183 4513 0
133 4513 0
183 -133 -4513 0
132 4514 0
-4511 -4512 -4513 4514 0
-132 4513 -4514 0
-132 4512 -4514 0
-132 4511 -4514 0
-182 4515 0
-4511 -4512 -4513 4515 0
182 4513 -4515 0
182 4512 -4515 0
182 4511 -4515 0
-182 4516 0
132 4516 0
182 -132 -4516 0
136 4517 0
-4514 -4515 -4516 4517 0
-136 4516 -4517 0
-136 4515 -4517 0
-136 4514 -4517 0
-186 4518 0
-4514 -4515 -4516 4518 0
186 4516 -4518 0
186 4515 -4518 0
186 4514 -4518 0
-186 4519 0
136 4519 0
186 -136 -4519 0
-3524 4519 0
-3524 4518 0
-3524 4517 0
134 4520 0
135 -175 4520 0
-135 -134 -4520 0
175 -134 -4520 0
-174 4521 0
135 -175 4521 0
174 -135 -4521 0
174 175 -4521 0
-174 4522 0
134 4522 0
174 -134 -4522 0
133 4523 0
-4520 -4521 -4522 4523 0
-133 4522 -4523 0
-133 4521 -4523 0
-133 4520 -4523 0
-173 4524 0
-4520 -4521 -4522 4524 0
173 4522 -4524 0
173 4521 -4524 0
173 4520 -4524 0
-173 4525 0
133 4525 0
173 -133 -4525 0
132 4526 0
-4523 -4524 -4525 4526 0
-132 4525 -4526 0
-132 4524 -4526 0
-132 4523 -4526 0
-172 4527 0
-4523 -4524 -4525 4527 0
172 4525 -4527 0
172 4524 -4527 0
172 4523 -4527 0
-172 4528 0
132 4528 0
172 -132 -4528 0
136 4529 0
-4526 -4527 -4528 4529 0
-136 4528 -4529 0
-136 4527 -4529 0
-136 4526 -4529 0
-176 4530 0
-4526 -4527 -4528 4530 0
176 4528 -4530 0
176 4527 -4530 0
176 4526 -4530 0
-176 4531 0
136 4531 0
176 -136 -4531 0
-3519 4531 0
-3519 4530 0
-3519 4529 0
134 4532 0
135 -125 4532 0
-135 -134 -4532 0
125 -134 -4532 0
-124 4533 0
135 -125 4533 0
124 -135 -4533 0
124 125 -4533 0
-124 4534 0
134 4534 0
124 -134 -4534 0
133 4535 0
-4532 -4533 -4534 4535 0
-133 4534 -4535 0
-133 4533 -4535 0
-133 4532 -4535 0
-123 4536 0
-4532 -4533 -4534 4536 0
123 4534 -4536 0
123 4533 -4536 0
123 4532 -4536 0
-123 4537 0
133 4537 0
123 -133 -4537 0
132 4538 0
-4535 -4536 -4537 4538 0
-132 4537 -4538 0
-132 4536 -4538 0
-132 4535 -4538 0
-122 4539 0
-4535 -4536 -4537 4539 0
122 4537 -4539 0
122 4536 -4539 0
122 4535 -4539 0
-122 4540 0
132 4540 0
122 -132 -4540 0
136 4541 0
-4538 -4539 -4540 4541 0
-136 4540 -4541 0
-136 4539 -4541 0
-136 4538 -4541 0
-126 4542 0
-4538 -4539 -4540 4542 0
126 4540 -4542 0
126 4539 -4542 0
126 4538 -4542 0
-126 4543 0
136 4543 0
126 -136 -4543 0
-3493 4543 0
-3493 4542 0
-3493 4541 0
134 4544 0
135 -75 4544 0
-135 -134 -4544 0
75 -134 -4544 0
-74 4545 0
135 -75 4545 0
74 -135 -4545 0
74 75 -4545 0
-74 4546 0
134 4546 0
74 -134 -4546 0
133 4547 0
-4544 -4545 -4546 4547 0
-133 4546 -4547 0
-133 4545 -4547 0
-133 4544 -4547 0
-73 4548 0
-4544 -4545 -4546 4548 0
73 4546 -4548 0
73 4545 -4548 0
73 4544 -4548 0
-73 4549 0
133 4549 0
73 -133 -4549 0
132 4550 0
-4547 -4548 -4549 4550 0
-132 4549 -4550 0
-132 4548 -4550 0
-132 4547 -4550 0
-72 4551 0
-4547 -4548 -4549 4551 0
72 4549 -4551 0
72 4548 -4551 0
72 4547 -4551 0
-72 4552 0
132 4552 0
72 -132 -4552 0
136 4553 0
-4550 -4551 -4552 4553 0
-136 4552 -4553 0
-136 4551 -4553 0
-136 4550 -4553 0
-76 4554 0
-4550 -4551 -4552 4554 0
76 4552 -4554 0
76 4551 -4554 0
76 4550 -4554 0
-76 4555 0
136 4555 0
76 -136 -4555 0
-3468 4555 0
-3468 4554 0
-3468 4553 0
144 4556 0
145 -95 4556 0
-145 -144 -4556 0
95 -144 -4556 0
-94 4557 0
145 -95 4557 0
94 -145 -4557 0
94 95 -4557 0
-94 4558 0
144 4558 0
94 -144 -4558 0
143 4559 0
-4556 -4557 -4558 4559 0
-143 4558 -4559 0
-143 4557 -4559 0
-143 4556 -4559 0
-93 4560 0
-4556 -4557 -4558 4560 0
93 4558 -4560 0
93 4557 -4560 0
93 4556 -4560 0
-93 4561 0
143 4561 0
93 -143 -4561 0
142 4562 0
-4559 -4560 -4561 4562 0
-142 4561 -4562 0
-142 4560 -4562 0
-142 4559 -4562 0
-92 4563 0
-4559 -4560 -4561 4563 0
92 4561 -4563 0
92 4560 -4563 0
92 4559 -4563 0
-92 4564 0
142 4564 0
92 -142 -4564 0
146 4565 0
-4562 -4563 -4564 4565 0
-146 4564 -4565 0
-146 4563 -4565 0
-146 4562 -4565 0
-96 4566 0
-4562 -4563 -4564 4566 0
96 4564 -4566 0
96 4563 -4566 0
96 4562 -4566 0
-96 4567 0
146 4567 0
96 -146 -4567 0
-3382 4567 0
-3382 4566 0
-3382 4565 0
144 4568 0
145 -195 4568 0
-145 -144 -4568 0
195 -144 -4568 0
-194 4569 0
145 -195 4569 0
194 -145 -4569 0
194 195 -4569 0
-194 4570 0
144 4570 0
194 -144 -4570 0
143 4571 0
-4568 -4569 -4570 4571 0
-143 4570 -4571 0
-143 4569 -4571 0
-143 4568 -4571 0
-193 4572 0
-4568 -4569 -4570 4572 0
193 4570 -4572 0
193 4569 -4572 0
193 4568 -4572 0
-193 4573 0
143 4573 0
193 -143 -4573 0
142 4574 0
-4571 -4572 -4573 4574 0
-142 4573 -4574 0
-142 4572 -4574 0
-142 4571 -4574 0
-192 4575 0
-4571 -4572 -4573 4575 0
192 4573 -4575 0
192 4572 -4575 0
192 4571 -4575 0
-192 4576 0
142 4576 0
192 -142 -4576 0
146 4577 0
-4574 -4575 -4576 4577 0
-146 4576 -4577 0
-146 4575 -4577 0
-146 4574 -4577 0
-196 4578 0
-4574 -4575 -4576 4578 0
196 4576 -4578 0
196 4575 -4578 0
196 4574 -4578 0
-196 4579 0
146 4579 0
196 -146 -4579 0
-3383 4579 0
-3383 4578 0
-3383 4577 0
144 4580 0
145 -185 4580 0
-145 -144 -4580 0
185 -144 -4580 0
-184 4581 0
145 -185 4581 0
184 -145 -4581 0
184 185 -4581 0
-184 4582 0
144 4582 0
184 -144 -4582 0
143 4583 0
-4580 -4581 -4582 4583 0
-143 4582 -4583 0
-143 4581 -4583 0
-143 4580 -4583 0
-183 4584 0
-4580 -4581 -4582 4584 0
183 4582 -4584 0
183 4581 -4584 0
183 4580 -4584 0
-183 4585 0
143 4585 0
183 -143 -4585 0
142 4586 0
-4583 -4584 -4585 4586 0
-142 4585 -4586 0
-142 4584 -4586 0
-142 4583 -4586 0
-182 4587 0
-4583 -4584 -4585 4587 0
182 4585 -4587 0
182 4584 -4587 0
182 4583 -4587 0
-182 4588 0
142 4588 0
182 -142 -4588 0
146 4589 0
-4586 -4587 -4588 4589 0
-146 4588 -4589 0
-146 4587 -4589 0
-146 4586 -4589 0
-186 4590 0
-4586 -4587 -4588 4590 0
186 4588 -4590 0
186 4587 -4590 0
186 4586 -4590 0
-186 4591 0
146 4591 0
186 -146 -4591 0
-3381 4591 0
-3381 4590 0
-3381 4589 0
144 4592 0
145 -135 4592 0
-145 -144 -4592 0
135 -144 -4592 0
-134 4593 0
145 -135 4593 0
134 -145 -4593 0
134 135 -4593 0
-134 4594 0
144 4594 0
134 -144 -4594 0
143 4595 0
-4592 -4593 -4594 4595 0
-143 4594 -4595 0
-143 4593 -4595 0
-143 4592 -4595 0
-133 4596 0
-4592 -4593 -4594 4596 0
133 4594 -4596 0
133 4593 -4596 0
133 4592 -4596 0
-133 4597 0
143 4597 0
133 -143 -4597 0
142 4598 0
-4595 -4596 -4597 4598 0
-142 4597 -4598 0
-142 4596 -4598 0
-142 4595 -4598 0
-132 4599 0
-4595 -4596 -4597 4599 0
132 4597 -4599 0
132 4596 -4599 0
132 4595 -4599 0
-132 4600 0
142 4600 0
132 -142 -4600 0
146 4601 0
-4598 -4599 -4600 4601 0
-146 4600 -4601 0
-146 4599 -4601 0
-146 4598 -4601 0
-136 4602 0
-4598 -4599 -4600 4602 0
136 4600 -4602 0
136 4599 -4602 0
136 4598 -4602 0
-136 4603 0
146 4603 0
136 -146 -4603 0
-3384 4603 0
-3384 4602 0
-3384 4601 0
144 4604 0
145 -85 4604 0
-145 -144 -4604 0
85 -144 -4604 0
-84 4605 0
145 -85 4605 0
84 -145 -4605 0
84 85 -4605 0
-84 4606 0
144 4606 0
84 -144 -4606 0
143 4607 0
-4604 -4605 -4606 4607 0
-143 4606 -4607 0
-143 4605 -4607 0
-143 4604 -4607 0
-83 4608 0
-4604 -4605 -4606 4608 0
83 4606 -4608 0
83 4605 -4608 0
83 4604 -4608 0
-83 4609 0
143 4609 0
83 -143 -4609 0
142 4610 0
-4607 -4608 -4609 4610 0
-142 4609 -4610 0
-142 4608 -4610 0
-142 4607 -4610 0
-82 4611 0
-4607 -4608 -4609 4611 0
82 4609 -4611 0
82 4608 -4611 0
82 4607 -4611 0
-82 4612 0
142 4612 0
82 -142 -4612 0
146 4613 0
-4610 -4611 -4612 4613 0
-146 4612 -4613 0
-146 4611 -4613 0
-146 4610 -4613 0
-86 4614 0
-4610 -4611 -4612 4614 0
86 4612 -4614 0
86 4611 -4614 0
86 4610 -4614 0
-86 4615 0
146 4615 0
86 -146 -4615 0
-3380 4615 0
-3380 4614 0
-3380 4613 0
154 4616 0
155 -105 4616 0
-155 -154 -4616 0
105 -154 -4616 0
-104 4617 0
155 -105 4617 0
104 -155 -4617 0
104 105 -4617 0
-104 4618 0
154 4618 0
104 -154 -4618 0
153 4619 0
-4616 -4617 -4618 4619 0
-153 4618 -4619 0
-153 4617 -4619 0
-153 4616 -4619 0
-103 4620 0
-4616 -4617 -4618 4620 0
103 4618 -4620 0
103 4617 -4620 0
103 4616 -4620 0
-103 4621 0
153 4621 0
103 -153 -4621 0
152 4622 0
-4619 -4620 -4621 4622 0
-152 4621 -4622 0
-152 4620 -4622 0
-152 4619 -4622 0
-102 4623 0
-4619 -4620 -4621 4623 0
102 4621 -4623 0
102 4620 -4623 0
102 4619 -4623 0
-102 4624 0
152 4624 0
102 -152 -4624 0
156 4625 0
-4622 -4623 -4624 4625 0
-156 4624 -4625 0
-156 4623 -4625 0
-156 4622 -4625 0
-106 4626 0
-4622 -4623 -4624 4626 0
106 4624 -4626 0
106 4623 -4626 0
106 4622 -4626 0
-106 4627 0
156 4627 0
106 -156 -4627 0
-3390 4627 0
-3390 4626 0
-3390 4625 0
154 4628 0
155 -115 4628 0
-155 -154 -4628 0
115 -154 -4628 0
-114 4629 0
155 -115 4629 0
114 -155 -4629 0
114 115 -4629 0
-114 4630 0
154 4630 0
114 -154 -4630 0
153 4631 0
-4628 -4629 -4630 4631 0
-153 4630 -4631 0
-153 4629 -4631 0
-153 4628 -4631 0
-113 4632 0
-4628 -4629 -4630 4632 0
113 4630 -4632 0
113 4629 -4632 0
113 4628 -4632 0
-113 4633 0
153 4633 0
113 -153 -4633 0
152 4634 0
-4631 -4632 -4633 4634 0
-152 4633 -4634 0
-152 4632 -4634 0
-152 4631 -4634 0
-112 4635 0
-4631 -4632 -4633 4635 0
112 4633 -4635 0
112 4632 -4635 0
112 4631 -4635 0
-112 4636 0
152 4636 0
112 -152 -4636 0
156 4637 0
-4634 -4635 -4636 4637 0
-156 4636 -4637 0
-156 4635 -4637 0
-156 4634 -4637 0
-116 4638 0
-4634 -4635 -4636 4638 0
116 4636 -4638 0
116 4635 -4638 0
116 4634 -4638 0
-116 4639 0
156 4639 0
116 -156 -4639 0
-3388 4639 0
-3388 4638 0
-3388 4637 0
154 4640 0
155 -165 4640 0
-155 -154 -4640 0
165 -154 -4640 0
-164 4641 0
155 -165 4641 0
164 -155 -4641 0
164 165 -4641 0
-164 4642 0
154 4642 0
164 -154 -4642 0
153 4643 0
-4640 -4641 -4642 4643 0
-153 4642 -4643 0
-153 4641 -4643 0
-153 4640 -4643 0
-163 4644 0
-4640 -4641 -4642 4644 0
163 4642 -4644 0
163 4641 -4644 0
163 4640 -4644 0
-163 4645 0
153 4645 0
163 -153 -4645 0
152 4646 0
-4643 -4644 -4645 4646 0
-152 4645 -4646 0
-152 4644 -4646 0
-152 4643 -4646 0
-162 4647 0
-4643 -4644 -4645 4647 0
162 4645 -4647 0
162 4644 -4647 0
162 4643 -4647 0
-162 4648 0
152 4648 0
162 -152 -4648 0
156 4649 0
-4646 -4647 -4648 4649 0
-156 4648 -4649 0
-156 4647 -4649 0
-156 4646 -4649 0
-166 4650 0
-4646 -4647 -4648 4650 0
166 4648 -4650 0
166 4647 -4650 0
166 4646 -4650 0
-166 4651 0
156 4651 0
166 -156 -4651 0
-3391 4651 0
-3391 4650 0
-3391 4649 0
154 4652 0
155 -215 4652 0
-155 -154 -4652 0
215 -154 -4652 0
-214 4653 0
155 -215 4653 0
214 -155 -4653 0
214 215 -4653 0
-214 4654 0
154 4654 0
214 -154 -4654 0
153 4655 0
-4652 -4653 -4654 4655 0
-153 4654 -4655 0
-153 4653 -4655 0
-153 4652 -4655 0
-213 4656 0
-4652 -4653 -4654 4656 0
213 4654 -4656 0
213 4653 -4656 0
213 4652 -4656 0
-213 4657 0
153 4657 0
213 -153 -4657 0
152 4658 0
-4655 -4656 -4657 4658 0
-152 4657 -4658 0
-152 4656 -4658 0
-152 4655 -4658 0
-212 4659 0
-4655 -4656 -4657 4659 0
212 4657 -4659 0
212 4656 -4659 0
212 4655 -4659 0
-212 4660 0
152 4660 0
212 -152 -4660 0
156 4661 0
-4658 -4659 -4660 4661 0
-156 4660 -4661 0
-156 4659 -4661 0
-156 4658 -4661 0
-216 4662 0
-4658 -4659 -4660 4662 0
216 4660 -4662 0
216 4659 -4662 0
216 4658 -4662 0
-216 4663 0
156 4663 0
216 -156 -4663 0
-3389 4663 0
-3389 4662 0
-3389 4661 0
154 4664 0
155 -205 4664 0
-155 -154 -4664 0
205 -154 -4664 0
-204 4665 0
155 -205 4665 0
204 -155 -4665 0
204 205 -4665 0
-204 4666 0
154 4666 0
204 -154 -4666 0
153 4667 0
-4664 -4665 -4666 4667 0
-153 4666 -4667 0
-153 4665 -4667 0
-153 4664 -4667 0
-203 4668 0
-4664 -4665 -4666 4668 0
203 4666 -4668 0
203 4665 -4668 0
203 4664 -4668 0
-203 4669 0
153 4669 0
203 -153 -4669 0
152 4670 0
-4667 -4668 -4669 4670 0
-152 4669 -4670 0
-152 4668 -4670 0
-152 4667 -4670 0
-202 4671 0
-4667 -4668 -4669 4671 0
202 4669 -4671 0
202 4668 -4671 0
202 4667 -4671 0
-202 4672 0
152 4672 0
202 -152 -4672 0
156 4673 0
-4670 -4671 -4672 4673 0
-156 4672 -4673 0
-156 4671 -4673 0
-156 4670 -4673 0
-206 4674 0
-4670 -4671 -4672 4674 0
206 4672 -4674 0
206 4671 -4674 0
206 4670 -4674 0
-206 4675 0
156 4675 0
206 -156 -4675 0
-3392 4675 0
-3392 4674 0
-3392 4673 0
164 4676 0
165 -115 4676 0
-165 -164 -4676 0
115 -164 -4676 0
-114 4677 0
165 -115 4677 0
114 -165 -4677 0
114 115 -4677 0
-114 4678 0
164 4678 0
114 -164 -4678 0
163 4679 0
-4676 -4677 -4678 4679 0
-163 4678 -4679 0
-163 4677 -4679 0
-163 4676 -4679 0
-113 4680 0
-4676 -4677 -4678 4680 0
113 4678 -4680 0
113 4677 -4680 0
113 4676 -4680 0
-113 4681 0
163 4681 0
113 -163 -4681 0
162 4682 0
-4679 -4680 -4681 4682 0
-162 4681 -4682 0
-162 4680 -4682 0
-162 4679 -4682 0
-112 4683 0
-4679 -4680 -4681 4683 0
112 4681 -4683 0
112 4680 -4683 0
112 4679 -4683 0
-112 4684 0
162 4684 0
112 -162 -4684 0
166 4685 0
-4682 -4683 -4684 4685 0
-166 4684 -4685 0
-166 4683 -4685 0
-166 4682 -4685 0
-116 4686 0
-4682 -4683 -4684 4686 0
116 4684 -4686 0
116 4683 -4686 0
116 4682 -4686 0
-116 4687 0
166 4687 0
116 -166 -4687 0
-3486 4687 0
-3486 4686 0
-3486 4685 0
164 4688 0
165 -125 4688 0
-165 -164 -4688 0
125 -164 -4688 0
-124 4689 0
165 -125 4689 0
124 -165 -4689 0
124 125 -4689 0
-124 4690 0
164 4690 0
124 -164 -4690 0
163 4691 0
-4688 -4689 -4690 4691 0
-163 4690 -4691 0
-163 4689 -4691 0
-163 4688 -4691 0
-123 4692 0
-4688 -4689 -4690 4692 0
123 4690 -4692 0
123 4689 -4692 0
123 4688 -4692 0
-123 4693 0
163 4693 0
123 -163 -4693 0
162 4694 0
-4691 -4692 -4693 4694 0
-162 4693 -4694 0
-162 4692 -4694 0
-162 4691 -4694 0
-122 4695 0
-4691 -4692 -4693 4695 0
122 4693 -4695 0
122 4692 -4695 0
122 4691 -4695 0
-122 4696 0
162 4696 0
122 -162 -4696 0
166 4697 0
-4694 -4695 -4696 4697 0
-166 4696 -4697 0
-166 4695 -4697 0
-166 4694 -4697 0
-126 4698 0
-4694 -4695 -4696 4698 0
126 4696 -4698 0
126 4695 -4698 0
126 4694 -4698 0
-126 4699 0
166 4699 0
126 -166 -4699 0
-3494 4699 0
-3494 4698 0
-3494 4697 0
164 4700 0
165 -175 4700 0
-165 -164 -4700 0
175 -164 -4700 0
-174 4701 0
165 -175 4701 0
174 -165 -4701 0
174 175 -4701 0
-174 4702 0
164 4702 0
174 -164 -4702 0
163 4703 0
-4700 -4701 -4702 4703 0
-163 4702 -4703 0
-163 4701 -4703 0
-163 4700 -4703 0
-173 4704 0
-4700 -4701 -4702 4704 0
173 4702 -4704 0
173 4701 -4704 0
173 4700 -4704 0
-173 4705 0
163 4705 0
173 -163 -4705 0
162 4706 0
-4703 -4704 -4705 4706 0
-162 4705 -4706 0
-162 4704 -4706 0
-162 4703 -4706 0
-172 4707 0
-4703 -4704 -4705 4707 0
172 4705 -4707 0
172 4704 -4707 0
172 4703 -4707 0
-172 4708 0
162 4708 0
172 -162 -4708 0
166 4709 0
-4706 -4707 -4708 4709 0
-166 4708 -4709 0
-166 4707 -4709 0
-166 4706 -4709 0
-176 4710 0
-4706 -4707 -4708 4710 0
176 4708 -4710 0
176 4707 -4710 0
176 4706 -4710 0
-176 4711 0
166 4711 0
176 -166 -4711 0
-3520 4711 0
-3520 4710 0
-3520 4709 0
164 4712 0
165 -225 4712 0
-165 -164 -4712 0
225 -164 -4712 0
-224 4713 0
165 -225 4713 0
224 -165 -4713 0
224 225 -4713 0
-224 4714 0
164 4714 0
224 -164 -4714 0
163 4715 0
-4712 -4713 -4714 4715 0
-163 4714 -4715 0
-163 4713 -4715 0
-163 4712 -4715 0
-223 4716 0
-4712 -4713 -4714 4716 0
223 4714 -4716 0
223 4713 -4716 0
223 4712 -4716 0
-223 4717 0
163 4717 0
223 -163 -4717 0
162 4718 0
-4715 -4716 -4717 4718 0
-162 4717 -4718 0
-162 4716 -4718 0
-162 4715 -4718 0
-222 4719 0
-4715 -4716 -4717 4719 0
222 4717 -4719 0
222 4716 -4719 0
222 4715 -4719 0
-222 4720 0
162 4720 0
222 -162 -4720 0
166 4721 0
-4718 -4719 -4720 4721 0
-166 4720 -4721 0
-166 4719 -4721 0
-166 4718 -4721 0
-226 4722 0
-4718 -4719 -4720 4722 0
226 4720 -4722 0
226 4719 -4722 0
226 4718 -4722 0
-226 4723 0
166 4723 0
226 -166 -4723 0
-3538 4723 0
-3538 4722 0
-3538 4721 0
164 4724 0
165 -215 4724 0
-165 -164 -4724 0
215 -164 -4724 0
-214 4725 0
165 -215 4725 0
214 -165 -4725 0
214 215 -4725 0
-214 4726 0
164 4726 0
214 -164 -4726 0
163 4727 0
-4724 -4725 -4726 4727 0
-163 4726 -4727 0
-163 4725 -4727 0
-163 4724 -4727 0
-213 4728 0
-4724 -4725 -4726 4728 0
213 4726 -4728 0
213 4725 -4728 0
213 4724 -4728 0
-213 4729 0
163 4729 0
213 -163 -4729 0
162 4730 0
-4727 -4728 -4729 4730 0
-162 4729 -4730 0
-162 4728 -4730 0
-162 4727 -4730 0
-212 4731 0
-4727 -4728 -4729 4731 0
212 4729 -4731 0
212 4728 -4731 0
212 4727 -4731 0
-212 4732 0
162 4732 0
212 -162 -4732 0
166 4733 0
-4730 -4731 -4732 4733 0
-166 4732 -4733 0
-166 4731 -4733 0
-166 4730 -4733 0
-216 4734 0
-4730 -4731 -4732 4734 0
216 4732 -4734 0
216 4731 -4734 0
216 4730 -4734 0
-216 4735 0
166 4735 0
216 -166 -4735 0
-3534 4735 0
-3534 4734 0
-3534 4733 0
164 4736 0
165 -205 4736 0
-165 -164 -4736 0
205 -164 -4736 0
-204 4737 0
165 -205 4737 0
204 -165 -4737 0
204 205 -4737 0
-204 4738 0
164 4738 0
204 -164 -4738 0
163 4739 0
-4736 -4737 -4738 4739 0
-163 4738 -4739 0
-163 4737 -4739 0
-163 4736 -4739 0
-203 4740 0
-4736 -4737 -4738 4740 0
203 4738 -4740 0
203 4737 -4740 0
203 4736 -4740 0
-203 4741 0
163 4741 0
203 -163 -4741 0
162 4742 0
-4739 -4740 -4741 4742 0
-162 4741 -4742 0
-162 4740 -4742 0
-162 4739 -4742 0
-202 4743 0
-4739 -4740 -4741 4743 0
202 4741 -4743 0
202 4740 -4743 0
202 4739 -4743 0
-202 4744 0
162 4744 0
202 -162 -4744 0
166 4745 0
-4742 -4743 -4744 4745 0
-166 4744 -4745 0
-166 4743 -4745 0
-166 4742 -4745 0
-206 4746 0
-4742 -4743 -4744 4746 0
206 4744 -4746 0
206 4743 -4746 0
206 4742 -4746 0
-206 4747 0
166 4747 0
206 -166 -4747 0
-3533 4747 0
-3533 4746 0
-3533 4745 0
164 4748 0
165 -155 4748 0
-165 -164 -4748 0
155 -164 -4748 0
-154 4749 0
165 -155 4749 0
154 -165 -4749 0
154 155 -4749 0
-154 4750 0
164 4750 0
154 -164 -4750 0
163 4751 0
-4748 -4749 -4750 4751 0
-163 4750 -4751 0
-163 4749 -4751 0
-163 4748 -4751 0
-153 4752 0
-4748 -4749 -4750 4752 0
153 4750 -4752 0
153 4749 -4752 0
153 4748 -4752 0
-153 4753 0
163 4753 0
153 -163 -4753 0
162 4754 0
-4751 -4752 -4753 4754 0
-162 4753 -4754 0
-162 4752 -4754 0
-162 4751 -4754 0
-152 4755 0
-4751 -4752 -4753 4755 0
152 4753 -4755 0
152 4752 -4755 0
152 4751 -4755 0
-152 4756 0
162 4756 0
152 -162 -4756 0
166 4757 0
-4754 -4755 -4756 4757 0
-166 4756 -4757 0
-166 4755 -4757 0
-166 4754 -4757 0
-156 4758 0
-4754 -4755 -4756 4758 0
156 4756 -4758 0
156 4755 -4758 0
156 4754 -4758 0
-156 4759 0
166 4759 0
156 -166 -4759 0
-3509 4759 0
-3509 4758 0
-3509 4757 0
164 4760 0
165 -105 4760 0
-165 -164 -4760 0
105 -164 -4760 0
-104 4761 0
165 -105 4761 0
104 -165 -4761 0
104 105 -4761 0
-104 4762 0
164 4762 0
104 -164 -4762 0
163 4763 0
-4760 -4761 -4762 4763 0
-163 4762 -4763 0
-163 4761 -4763 0
-163 4760 -4763 0
-103 4764 0
-4760 -4761 -4762 4764 0
103 4762 -4764 0
103 4761 -4764 0
103 4760 -4764 0
-103 4765 0
163 4765 0
103 -163 -4765 0
162 4766 0
-4763 -4764 -4765 4766 0
-162 4765 -4766 0
-162 4764 -4766 0
-162 4763 -4766 0
-102 4767 0
-4763 -4764 -4765 4767 0
102 4765 -4767 0
102 4764 -4767 0
102 4763 -4767 0
-102 4768 0
162 4768 0
102 -162 -4768 0
166 4769 0
-4766 -4767 -4768 4769 0
-166 4768 -4769 0
-166 4767 -4769 0
-166 4766 -4769 0
-106 4770 0
-4766 -4767 -4768 4770 0
106 4768 -4770 0
106 4767 -4770 0
106 4766 -4770 0
-106 4771 0
166 4771 0
106 -166 -4771 0
-3481 4771 0
-3481 4770 0
-3481 4769 0
174 4772 0
175 -125 4772 0
-175 -174 -4772 0
125 -174 -4772 0
-124 4773 0
175 -125 4773 0
124 -175 -4773 0
124 125 -4773 0
-124 4774 0
174 4774 0
124 -174 -4774 0
173 4775 0
-4772 -4773 -4774 4775 0
-173 4774 -4775 0
-173 4773 -4775 0
-173 4772 -4775 0
-123 4776 0
-4772 -4773 -4774 4776 0
123 4774 -4776 0
123 4773 -4776 0
123 4772 -4776 0
-123 4777 0
173 4777 0
123 -173 -4777 0
172 4778 0
-4775 -4776 -4777 4778 0
-172 4777 -4778 0
-172 4776 -4778 0
-172 4775 -4778 0
-122 4779 0
-4775 -4776 -4777 4779 0
122 4777 -4779 0
122 4776 -4779 0
122 4775 -4779 0
-122 4780 0
172 4780 0
122 -172 -4780 0
176 4781 0
-4778 -4779 -4780 4781 0
-176 4780 -4781 0
-176 4779 -4781 0
-176 4778 -4781 0
-126 4782 0
-4778 -4779 -4780 4782 0
126 4780 -4782 0
126 4779 -4782 0
126 4778 -4782 0
-126 4783 0
176 4783 0
126 -176 -4783 0
-3495 4783 0
-3495 4782 0
-3495 4781 0
174 4784 0
175 -135 4784 0
-175 -174 -4784 0
135 -174 -4784 0
-134 4785 0
175 -135 4785 0
134 -175 -4785 0
134 135 -4785 0
-134 4786 0
174 4786 0
134 -174 -4786 0
173 4787 0
-4784 -4785 -4786 4787 0
-173 4786 -4787 0
-173 4785 -4787 0
-173 4784 -4787 0
-133 4788 0
-4784 -4785 -4786 4788 0
133 4786 -4788 0
133 4785 -4788 0
133 4784 -4788 0
-133 4789 0
173 4789 0
133 -173 -4789 0
172 4790 0
-4787 -4788 -4789 4790 0
-172 4789 -4790 0
-172 4788 -4790 0
-172 4787 -4790 0
-132 4791 0
-4787 -4788 -4789 4791 0
132 4789 -4791 0
132 4788 -4791 0
132 4787 -4791 0
-132 4792 0
172 4792 0
132 -172 -4792 0
176 4793 0
-4790 -4791 -4792 4793 0
-176 4792 -4793 0
-176 4791 -4793 0
-176 4790 -4793 0
-136 4794 0
-4790 -4791 -4792 4794 0
136 4792 -4794 0
136 4791 -4794 0
136 4790 -4794 0
-136 4795 0
176 4795 0
136 -176 -4795 0
-3501 4795 0
-3501 4794 0
-3501 4793 0
174 4796 0
175 -185 4796 0
-175 -174 -4796 0
185 -174 -4796 0
-184 4797 0
175 -185 4797 0
184 -175 -4797 0
184 185 -4797 0
-184 4798 0
174 4798 0
184 -174 -4798 0
173 4799 0
-4796 -4797 -4798 4799 0
-173 4798 -4799 0
-173 4797 -4799 0
-173 4796 -4799 0
-183 4800 0
-4796 -4797 -4798 4800 0
183 4798 -4800 0
183 4797 -4800 0
183 4796 -4800 0
-183 4801 0
173 4801 0
183 -173 -4801 0
172 4802 0
-4799 -4800 -4801 4802 0
-172 4801 -4802 0
-172 4800 -4802 0
-172 4799 -4802 0
-182 4803 0
-4799 -4800 -4801 4803 0
182 4801 -4803 0
182 4800 -4803 0
182 4799 -4803 0
-182 4804 0
172 4804 0
182 -172 -4804 0
176 4805 0
-4802 -4803 -4804 4805 0
-176 4804 -4805 0
-176 4803 -4805 0
-176 4802 -4805 0
-186 4806 0
-4802 -4803 -4804 4806 0
186 4804 -4806 0
186 4803 -4806 0
186 4802 -4806 0
-186 4807 0
176 4807 0
186 -176 -4807 0
-3525 4807 0
-3525 4806 0
-3525 4805 0
174 4808 0
175 -235 4808 0
-175 -174 -4808 0
235 -174 -4808 0
-234 4809 0
175 -235 4809 0
234 -175 -4809 0
234 235 -4809 0
-234 4810 0
174 4810 0
234 -174 -4810 0
173 4811 0
-4808 -4809 -4810 4811 0
-173 4810 -4811 0
-173 4809 -4811 0
-173 4808 -4811 0
-233 4812 0
-4808 -4809 -4810 4812 0
233 4810 -4812 0
233 4809 -4812 0
233 4808 -4812 0
-233 4813 0
173 4813 0
233 -173 -4813 0
172 4814 0
-4811 -4812 -4813 4814 0
-172 4813 -4814 0
-172 4812 -4814 0
-172 4811 -4814 0
-232 4815 0
-4811 -4812 -4813 4815 0
232 4813 -4815 0
232 4812 -4815 0
232 4811 -4815 0
-232 4816 0
172 4816 0
232 -172 -4816 0
176 4817 0
-4814 -4815 -4816 4817 0
-176 4816 -4817 0
-176 4815 -4817 0
-176 4814 -4817 0
-236 4818 0
-4814 -4815 -4816 4818 0
236 4816 -4818 0
236 4815 -4818 0
236 4814 -4818 0
-236 4819 0
176 4819 0
236 -176 -4819 0
-3542 4819 0
-3542 4818 0
-3542 4817 0
174 4820 0
175 -225 4820 0
-175 -174 -4820 0
225 -174 -4820 0
-224 4821 0
175 -225 4821 0
224 -175 -4821 0
224 225 -4821 0
-224 4822 0
174 4822 0
224 -174 -4822 0
173 4823 0
-4820 -4821 -4822 4823 0
-173 4822 -4823 0
-173 4821 -4823 0
-173 4820 -4823 0
-223 4824 0
-4820 -4821 -4822 4824 0
223 4822 -4824 0
223 4821 -4824 0
223 4820 -4824 0
-223 4825 0
173 4825 0
223 -173 -4825 0
172 4826 0
-4823 -4824 -4825 4826 0
-172 4825 -4826 0
-172 4824 -4826 0
-172 4823 -4826 0
-222 4827 0
-4823 -4824 -4825 4827 0
222 4825 -4827 0
222 4824 -4827 0
222 4823 -4827 0
-222 4828 0
172 4828 0
222 -172 -4828 0
176 4829 0
-4826 -4827 -4828 4829 0
-176 4828 -4829 0
-176 4827 -4829 0
-176 4826 -4829 0
-226 4830 0
-4826 -4827 -4828 4830 0
226 4828 -4830 0
226 4827 -4830 0
226 4826 -4830 0
-226 4831 0
176 4831 0
226 -176 -4831 0
-3539 4831 0
-3539 4830 0
-3539 4829 0
174 4832 0
175 -215 4832 0
-175 -174 -4832 0
215 -174 -4832 0
-214 4833 0
175 -215 4833 0
214 -175 -4833 0
214 215 -4833 0
-214 4834 0
174 4834 0
214 -174 -4834 0
173 4835 0
-4832 -4833 -4834 4835 0
-173 4834 -4835 0
-173 4833 -4835 0
-173 4832 -4835 0
-213 4836 0
-4832 -4833 -4834 4836 0
213 4834 -4836 0
213 4833 -4836 0
213 4832 -4836 0
-213 4837 0
173 4837 0
213 -173 -4837 0
172 4838 0
-4835 -4836 -4837 4838 0
-172 4837 -4838 0
-172 4836 -4838 0
-172 4835 -4838 0
-212 4839 0
-4835 -4836 -4837 4839 0
212 4837 -4839 0
212 4836 -4839 0
212 4835 -4839 0
-212 4840 0
172 4840 0
212 -172 -4840 0
176 4841 0
-4838 -4839 -4840 4841 0
-176 4840 -4841 0
-176 4839 -4841 0
-176 4838 -4841 0
-216 4842 0
-4838 -4839 -4840 4842 0
216 4840 -4842 0
216 4839 -4842 0
216 4838 -4842 0
-216 4843 0
176 4843 0
216 -176 -4843 0
-3535 4843 0
-3535 4842 0
-3535 4841 0
174 4844 0
175 -165 4844 0
-175 -174 -4844 0
165 -174 -4844 0
-164 4845 0
175 -165 4845 0
164 -175 -4845 0
164 165 -4845 0
-164 4846 0
174 4846 0
164 -174 -4846 0
173 4847 0
-4844 -4845 -4846 4847 0
-173 4846 -4847 0
-173 4845 -4847 0
-173 4844 -4847 0
-163 4848 0
-4844 -4845 -4846 4848 0
163 4846 -4848 0
163 4845 -4848 0
163 4844 -4848 0
-163 4849 0
173 4849 0
163 -173 -4849 0
172 4850 0
-4847 -4848 -4849 4850 0
-172 4849 -4850 0
-172 4848 -4850 0
-172 4847 -4850 0
-162 4851 0
-4847 -4848 -4849 4851 0
162 4849 -4851 0
162 4848 -4851 0
162 4847 -4851 0
-162 4852 0
172 4852 0
162 -172 -4852 0
176 4853 0
-4850 -4851 -4852 4853 0
-176 4852 -4853 0
-176 4851 -4853 0
-176 4850 -4853 0
-166 4854 0
-4850 -4851 -4852 4854 0
166 4852 -4854 0
166 4851 -4854 0
166 4850 -4854 0
-166 4855 0
176 4855 0
166 -176 -4855 0
-3514 4855 0
-3514 4854 0
-3514 4853 0
174 4856 0
175 -115 4856 0
-175 -174 -4856 0
115 -174 -4856 0
-114 4857 0
175 -115 4857 0
114 -175 -4857 0
114 115 -4857 0
-114 4858 0
174 4858 0
114 -174 -4858 0
173 4859 0
-4856 -4857 -4858 4859 0
-173 4858 -4859 0
-173 4857 -4859 0
-173 4856 -4859 0
-113 4860 0
-4856 -4857 -4858 4860 0
113 4858 -4860 0
113 4857 -4860 0
113 4856 -4860 0
-113 4861 0
173 4861 0
113 -173 -4861 0
172 4862 0
-4859 -4860 -4861 4862 0
-172 4861 -4862 0
-172 4860 -4862 0
-172 4859 -4862 0
-112 4863 0
-4859 -4860 -4861 4863 0
112 4861 -4863 0
112 4860 -4863 0
112 4859 -4863 0
-112 4864 0
172 4864 0
112 -172 -4864 0
176 4865 0
-4862 -4863 -4864 4865 0
-176 4864 -4865 0
-176 4863 -4865 0
-176 4862 -4865 0
-116 4866 0
-4862 -4863 -4864 4866 0
116 4864 -4866 0
116 4863 -4866 0
116 4862 -4866 0
-116 4867 0
176 4867 0
116 -176 -4867 0
-3487 4867 0
-3487 4866 0
-3487 4865 0
184 4868 0
185 -135 4868 0
-185 -184 -4868 0
135 -184 -4868 0
-134 4869 0
185 -135 4869 0
134 -185 -4869 0
134 135 -4869 0
-134 4870 0
184 4870 0
134 -184 -4870 0
183 4871 0
-4868 -4869 -4870 4871 0
-183 4870 -4871 0
-183 4869 -4871 0
-183 4868 -4871 0
-133 4872 0
-4868 -4869 -4870 4872 0
133 4870 -4872 0
133 4869 -4872 0
133 4868 -4872 0
-133 4873 0
183 4873 0
133 -183 -4873 0
182 4874 0
-4871 -4872 -4873 4874 0
-182 4873 -4874 0
-182 4872 -4874 0
-182 4871 -4874 0
-132 4875 0
-4871 -4872 -4873 4875 0
132 4873 -4875 0
132 4872 -4875 0
132 4871 -4875 0
-132 4876 0
182 4876 0
132 -182 -4876 0
186 4877 0
-4874 -4875 -4876 4877 0
-186 4876 -4877 0
-186 4875 -4877 0
-186 4874 -4877 0
-136 4878 0
-4874 -4875 -4876 4878 0
136 4876 -4878 0
136 4875 -4878 0
136 4874 -4878 0
-136 4879 0
186 4879 0
136 -186 -4879 0
-3502 4879 0
-3502 4878 0
-3502 4877 0
184 4880 0
185 -145 4880 0
-185 -184 -4880 0
145 -184 -4880 0
-144 4881 0
185 -145 4881 0
144 -185 -4881 0
144 145 -4881 0
-144 4882 0
184 4882 0
144 -184 -4882 0
183 4883 0
-4880 -4881 -4882 4883 0
-183 4882 -4883 0
-183 4881 -4883 0
-183 4880 -4883 0
-143 4884 0
-4880 -4881 -4882 4884 0
143 4882 -4884 0
143 4881 -4884 0
143 4880 -4884 0
-143 4885 0
183 4885 0
143 -183 -4885 0
182 4886 0
-4883 -4884 -4885 4886 0
-182 4885 -4886 0
-182 4884 -4886 0
-182 4883 -4886 0
-142 4887 0
-4883 -4884 -4885 4887 0
142 4885 -4887 0
142 4884 -4887 0
142 4883 -4887 0
-142 4888 0
182 4888 0
142 -182 -4888 0
186 4889 0
-4886 -4887 -4888 4889 0
-186 4888 -4889 0
-186 4887 -4889 0
-186 4886 -4889 0
-146 4890 0
-4886 -4887 -4888 4890 0
146 4888 -4890 0
146 4887 -4890 0
146 4886 -4890 0
-146 4891 0
186 4891 0
146 -186 -4891 0
-3506 4891 0
-3506 4890 0
-3506 4889 0
184 4892 0
185 -195 4892 0
-185 -184 -4892 0
195 -184 -4892 0
-194 4893 0
185 -195 4893 0
194 -185 -4893 0
194 195 -4893 0
-194 4894 0
184 4894 0
194 -184 -4894 0
183 4895 0
-4892 -4893 -4894 4895 0
-183 4894 -4895 0
-183 4893 -4895 0
-183 4892 -4895 0
-193 4896 0
-4892 -4893 -4894 4896 0
193 4894 -4896 0
193 4893 -4896 0
193 4892 -4896 0
-193 4897 0
183 4897 0
193 -183 -4897 0
182 4898 0
-4895 -4896 -4897 4898 0
-182 4897 -4898 0
-182 4896 -4898 0
-182 4895 -4898 0
-192 4899 0
-4895 -4896 -4897 4899 0
192 4897 -4899 0
192 4896 -4899 0
192 4895 -4899 0
-192 4900 0
182 4900 0
192 -182 -4900 0
186 4901 0
-4898 -4899 -4900 4901 0
-186 4900 -4901 0
-186 4899 -4901 0
-186 4898 -4901 0
-196 4902 0
-4898 -4899 -4900 4902 0
196 4900 -4902 0
196 4899 -4902 0
196 4898 -4902 0
-196 4903 0
186 4903 0
196 -186 -4903 0
-3529 4903 0
-3529 4902 0
-3529 4901 0
184 4904 0
185 -245 4904 0
-185 -184 -4904 0
245 -184 -4904 0
-244 4905 0
185 -245 4905 0
244 -185 -4905 0
244 245 -4905 0
-244 4906 0
184 4906 0
244 -184 -4906 0
183 4907 0
-4904 -4905 -4906 4907 0
-183 4906 -4907 0
-183 4905 -4907 0
-183 4904 -4907 0
-243 4908 0
-4904 -4905 -4906 4908 0
243 4906 -4908 0
243 4905 -4908 0
243 4904 -4908 0
-243 4909 0
183 4909 0
243 -183 -4909 0
182 4910 0
-4907 -4908 -4909 4910 0
-182 4909 -4910 0
-182 4908 -4910 0
-182 4907 -4910 0
-242 4911 0
-4907 -4908 -4909 4911 0
242 4909 -4911 0
242 4908 -4911 0
242 4907 -4911 0
-242 4912 0
182 4912 0
242 -182 -4912 0
186 4913 0
-4910 -4911 -4912 4913 0
-186 4912 -4913 0
-186 4911 -4913 0
-186 4910 -4913 0
-246 4914 0
-4910 -4911 -4912 4914 0
246 4912 -4914 0
246 4911 -4914 0
246 4910 -4914 0
-246 4915 0
186 4915 0
246 -186 -4915 0
-3547 4915 0
-3547 4914 0
-3547 4913 0
184 4916 0
185 -235 4916 0
-185 -184 -4916 0
235 -184 -4916 0
-234 4917 0
185 -235 4917 0
234 -185 -4917 0
234 235 -4917 0
-234 4918 0
184 4918 0
234 -184 -4918 0
183 4919 0
-4916 -4917 -4918 4919 0
-183 4918 -4919 0
-183 4917 -4919 0
-183 4916 -4919 0
-233 4920 0
-4916 -4917 -4918 4920 0
233 4918 -4920 0
233 4917 -4920 0
233 4916 -4920 0
-233 4921 0
183 4921 0
233 -183 -4921 0
182 4922 0
-4919 -4920 -4921 4922 0
-182 4921 -4922 0
-182 4920 -4922 0
-182 4919 -4922 0
-232 4923 0
-4919 -4920 -4921 4923 0
232 4921 -4923 0
232 4920 -4923 0
232 4919 -4923 0
-232 4924 0
182 4924 0
232 -182 -4924 0
186 4925 0
-4922 -4923 -4924 4925 0
-186 4924 -4925 0
-186 4923 -4925 0
-186 4922 -4925 0
-236 4926 0
-4922 -4923 -4924 4926 0
236 4924 -4926 0
236 4923 -4926 0
236 4922 -4926 0
-236 4927 0
186 4927 0
236 -186 -4927 0
-3543 4927 0
-3543 4926 0
-3543 4925 0
184 4928 0
185 -225 4928 0
-185 -184 -4928 0
225 -184 -4928 0
-224 4929 0
185 -225 4929 0
224 -185 -4929 0
224 225 -4929 0
-224 4930 0
184 4930 0
224 -184 -4930 0
183 4931 0
-4928 -4929 -4930 4931 0
-183 4930 -4931 0
-183 4929 -4931 0
-183 4928 -4931 0
-223 4932 0
-4928 -4929 -4930 4932 0
223 4930 -4932 0
223 4929 -4932 0
223 4928 -4932 0
-223 4933 0
183 4933 0
223 -183 -4933 0
182 4934 0
-4931 -4932 -4933 4934 0
-182 4933 -4934 0
-182 4932 -4934 0
-182 4931 -4934 0
-222 4935 0
-4931 -4932 -4933 4935 0
222 4933 -4935 0
222 4932 -4935 0
222 4931 -4935 0
-222 4936 0
182 4936 0
222 -182 -4936 0
186 4937 0
-4934 -4935 -4936 4937 0
-186 4936 -4937 0
-186 4935 -4937 0
-186 4934 -4937 0
-226 4938 0
-4934 -4935 -4936 4938 0
226 4936 -4938 0
226 4935 -4938 0
226 4934 -4938 0
-226 4939 0
186 4939 0
226 -186 -4939 0
-3540 4939 0
-3540 4938 0
-3540 4937 0
184 4940 0
185 -175 4940 0
-185 -184 -4940 0
175 -184 -4940 0
-174 4941 0
185 -175 4941 0
174 -185 -4941 0
174 175 -4941 0
-174 4942 0
184 4942 0
174 -184 -4942 0
183 4943 0
-4940 -4941 -4942 4943 0
-183 4942 -4943 0
-183 4941 -4943 0
-183 4940 -4943 0
-173 4944 0
-4940 -4941 -4942 4944 0
173 4942 -4944 0
173 4941 -4944 0
173 4940 -4944 0
-173 4945 0
183 4945 0
173 -183 -4945 0
182 4946 0
-4943 -4944 -4945 4946 0
-182 4945 -4946 0
-182 4944 -4946 0
-182 4943 -4946 0
-172 4947 0
-4943 -4944 -4945 4947 0
172 4945 -4947 0
172 4944 -4947 0
172 4943 -4947 0
-172 4948 0
182 4948 0
172 -182 -4948 0
186 4949 0
-4946 -4947 -4948 4949 0
-186 4948 -4949 0
-186 4947 -4949 0
-186 4946 -4949 0
-176 4950 0
-4946 -4947 -4948 4950 0
176 4948 -4950 0
176 4947 -4950 0
176 4946 -4950 0
-176 4951 0
186 4951 0
176 -186 -4951 0
-3521 4951 0
-3521 4950 0
-3521 4949 0
184 4952 0
185 -125 4952 0
-185 -184 -4952 0
125 -184 -4952 0
-124 4953 0
185 -125 4953 0
124 -185 -4953 0
124 125 -4953 0
-124 4954 0
184 4954 0
124 -184 -4954 0
183 4955 0
-4952 -4953 -4954 4955 0
-183 4954 -4955 0
-183 4953 -4955 0
-183 4952 -4955 0
-123 4956 0
-4952 -4953 -4954 4956 0
123 4954 -4956 0
123 4953 -4956 0
123 4952 -4956 0
-123 4957 0
183 4957 0
123 -183 -4957 0
182 4958 0
-4955 -4956 -4957 4958 0
-182 4957 -4958 0
-182 4956 -4958 0
-182 4955 -4958 0
-122 4959 0
-4955 -4956 -4957 4959 0
122 4957 -4959 0
122 4956 -4959 0
122 4955 -4959 0
-122 4960 0
182 4960 0
122 -182 -4960 0
186 4961 0
-4958 -4959 -4960 4961 0
-186 4960 -4961 0
-186 4959 -4961 0
-186 4958 -4961 0
-126 4962 0
-4958 -4959 -4960 4962 0
126 4960 -4962 0
126 4959 -4962 0
126 4958 -4962 0
-126 4963 0
186 4963 0
126 -186 -4963 0
-3496 4963 0
-3496 4962 0
-3496 4961 0
194 4964 0
195 -145 4964 0
-195 -194 -4964 0
145 -194 -4964 0
-144 4965 0
195 -145 4965 0
144 -195 -4965 0
144 145 -4965 0
-144 4966 0
194 4966 0
144 -194 -4966 0
193 4967 0
-4964 -4965 -4966 4967 0
-193 4966 -4967 0
-193 4965 -4967 0
-193 4964 -4967 0
-143 4968 0
-4964 -4965 -4966 4968 0
143 4966 -4968 0
143 4965 -4968 0
143 4964 -4968 0
-143 4969 0
193 4969 0
143 -193 -4969 0
192 4970 0
-4967 -4968 -4969 4970 0
-192 4969 -4970 0
-192 4968 -4970 0
-192 4967 -4970 0
-142 4971 0
-4967 -4968 -4969 4971 0
142 4969 -4971 0
142 4968 -4971 0
142 4967 -4971 0
-142 4972 0
192 4972 0
142 -192 -4972 0
196 4973 0
-4970 -4971 -4972 4973 0
-196 4972 -4973 0
-196 4971 -4973 0
-196 4970 -4973 0
-146 4974 0
-4970 -4971 -4972 4974 0
146 4972 -4974 0
146 4971 -4974 0
146 4970 -4974 0
-146 4975 0
196 4975 0
146 -196 -4975 0
-3410 4975 0
-3410 4974 0
-3410 4973 0
194 4976 0
195 -245 4976 0
-195 -194 -4976 0
245 -194 -4976 0
-244 4977 0
195 -245 4977 0
244 -195 -4977 0
244 245 -4977 0
-244 4978 0
194 4978 0
244 -194 -4978 0
193 4979 0
-4976 -4977 -4978 4979 0
-193 4978 -4979 0
-193 4977 -4979 0
-193 4976 -4979 0
-243 4980 0
-4976 -4977 -4978 4980 0
243 4978 -4980 0
243 4977 -4980 0
243 4976 -4980 0
-243 4981 0
193 4981 0
243 -193 -4981 0
192 4982 0
-4979 -4980 -4981 4982 0
-192 4981 -4982 0
-192 4980 -4982 0
-192 4979 -4982 0
-242 4983 0
-4979 -4980 -4981 4983 0
242 4981 -4983 0
242 4980 -4983 0
242 4979 -4983 0
-242 4984 0
192 4984 0
242 -192 -4984 0
196 4985 0
-4982 -4983 -4984 4985 0
-196 4984 -4985 0
-196 4983 -4985 0
-196 4982 -4985 0
-246 4986 0
-4982 -4983 -4984 4986 0
246 4984 -4986 0
246 4983 -4986 0
246 4982 -4986 0
-246 4987 0
196 4987 0
246 -196 -4987 0
-3411 4987 0
-3411 4986 0
-3411 4985 0
194 4988 0
195 -235 4988 0
-195 -194 -4988 0
235 -194 -4988 0
-234 4989 0
195 -235 4989 0
234 -195 -4989 0
234 235 -4989 0
-234 4990 0
194 4990 0
234 -194 -4990 0
193 4991 0
-4988 -4989 -4990 4991 0
-193 4990 -4991 0
-193 4989 -4991 0
-193 4988 -4991 0
-233 4992 0
-4988 -4989 -4990 4992 0
233 4990 -4992 0
233 4989 -4992 0
233 4988 -4992 0
-233 4993 0
193 4993 0
233 -193 -4993 0
192 4994 0
-4991 -4992 -4993 4994 0
-192 4993 -4994 0
-192 4992 -4994 0
-192 4991 -4994 0
-232 4995 0
-4991 -4992 -4993 4995 0
232 4993 -4995 0
232 4992 -4995 0
232 4991 -4995 0
-232 4996 0
192 4996 0
232 -192 -4996 0
196 4997 0
-4994 -4995 -4996 4997 0
-196 4996 -4997 0
-196 4995 -4997 0
-196 4994 -4997 0
-236 4998 0
-4994 -4995 -4996 4998 0
236 4996 -4998 0
236 4995 -4998 0
236 4994 -4998 0
-236 4999 0
196 4999 0
236 -196 -4999 0
-3409 4999 0
-3409 4998 0
-3409 4997 0
194 5000 0
195 -185 5000 0
-195 -194 -5000 0
185 -194 -5000 0
-184 5001 0
195 -185 5001 0
184 -195 -5001 0
184 185 -5001 0
-184 5002 0
194 5002 0
184 -194 -5002 0
193 5003 0
-5000 -5001 -5002 5003 0
-193 5002 -5003 0
-193 5001 -5003 0
-193 5000 -5003 0
-183 5004 0
-5000 -5001 -5002 5004 0
183 5002 -5004 0
183 5001 -5004 0
183 5000 -5004 0
-183 5005 0
193 5005 0
183 -193 -5005 0
192 5006 0
-5003 -5004 -5005 5006 0
-192 5005 -5006 0
-192 5004 -5006 0
-192 5003 -5006 0
-182 5007 0
-5003 -5004 -5005 5007 0
182 5005 -5007 0
182 5004 -5007 0
182 5003 -5007 0
-182 5008 0
192 5008 0
182 -192 -5008 0
196 5009 0
-5006 -5007 -5008 5009 0
-196 5008 -5009 0
-196 5007 -5009 0
-196 5006 -5009 0
-186 5010 0
-5006 -5007 -5008 5010 0
186 5008 -5010 0
186 5007 -5010 0
186 5006 -5010 0
-186 5011 0
196 5011 0
186 -196 -5011 0
-3412 5011 0
-3412 5010 0
-3412 5009 0
194 5012 0
195 -135 5012 0
-195 -194 -5012 0
135 -194 -5012 0
-134 5013 0
195 -135 5013 0
134 -195 -5013 0
134 135 -5013 0
-134 5014 0
194 5014 0
134 -194 -5014 0
193 5015 0
-5012 -5013 -5014 5015 0
-193 5014 -5015 0
-193 5013 -5015 0
-193 5012 -5015 0
-133 5016 0
-5012 -5013 -5014 5016 0
133 5014 -5016 0
133 5013 -5016 0
133 5012 -5016 0
-133 5017 0
193 5017 0
133 -193 -5017 0
192 5018 0
-5015 -5016 -5017 5018 0
-192 5017 -5018 0
-192 5016 -5018 0
-192 5015 -5018 0
-132 5019 0
-5015 -5016 -5017 5019 0
132 5017 -5019 0
132 5016 -5019 0
132 5015 -5019 0
-132 5020 0
192 5020 0
132 -192 -5020 0
196 5021 0
-5018 -5019 -5020 5021 0
-196 5020 -5021 0
-196 5019 -5021 0
-196 5018 -5021 0
-136 5022 0
-5018 -5019 -5020 5022 0
136 5020 -5022 0
136 5019 -5022 0
136 5018 -5022 0
-136 5023 0
196 5023 0
136 -196 -5023 0
-3408 5023 0
-3408 5022 0
-3408 5021 0
204 5024 0
205 -155 5024 0
-205 -204 -5024 0
155 -204 -5024 0
-154 5025 0
205 -155 5025 0
154 -205 -5025 0
154 155 -5025 0
-154 5026 0
204 5026 0
154 -204 -5026 0
203 5027 0
-5024 -5025 -5026 5027 0
-203 5026 -5027 0
-203 5025 -5027 0
-203 5024 -5027 0
-153 5028 0
-5024 -5025 -5026 5028 0
153 5026 -5028 0
153 5025 -5028 0
153 5024 -5028 0
-153 5029 0
203 5029 0
153 -203 -5029 0
202 5030 0
-5027 -5028 -5029 5030 0
-202 5029 -5030 0
-202 5028 -5030 0
-202 5027 -5030 0
-152 5031 0
-5027 -5028 -5029 5031 0
152 5029 -5031 0
152 5028 -5031 0
152 5027 -5031 0
-152 5032 0
202 5032 0
152 -202 -5032 0
206 5033 0
-5030 -5031 -5032 5033 0
-206 5032 -5033 0
-206 5031 -5033 0
-206 5030 -5033 0
-156 5034 0
-5030 -5031 -5032 5034 0
156 5032 -5034 0
156 5031 -5034 0
156 5030 -5034 0
-156 5035 0
206 5035 0
156 -206 -5035 0
-3510 5035 0
-3510 5034 0
-3510 5033 0
204 5036 0
205 -165 5036 0
-205 -204 -5036 0
165 -204 -5036 0
-164 5037 0
205 -165 5037 0
164 -205 -5037 0
164 165 -5037 0
-164 5038 0
204 5038 0
164 -204 -5038 0
203 5039 0
-5036 -5037 -5038 5039 0
-203 5038 -5039 0
-203 5037 -5039 0
-203 5036 -5039 0
-163 5040 0
-5036 -5037 -5038 5040 0
163 5038 -5040 0
163 5037 -5040 0
163 5036 -5040 0
-163 5041 0
203 5041 0
163 -203 -5041 0
202 5042 0
-5039 -5040 -5041 5042 0
-202 5041 -5042 0
-202 5040 -5042 0
-202 5039 -5042 0
-162 5043 0
-5039 -5040 -5041 5043 0
162 5041 -5043 0
162 5040 -5043 0
162 5039 -5043 0
-162 5044 0
202 5044 0
162 -202 -5044 0
206 5045 0
-5042 -5043 -5044 5045 0
-206 5044 -5045 0
-206 5043 -5045 0
-206 5042 -5045 0
-166 5046 0
-5042 -5043 -5044 5046 0
166 5044 -5046 0
166 5043 -5046 0
166 5042 -5046 0
-166 5047 0
206 5047 0
166 -206 -5047 0
-3515 5047 0
-3515 5046 0
-3515 5045 0
204 5048 0
205 -215 5048 0
-205 -204 -5048 0
215 -204 -5048 0
-214 5049 0
205 -215 5049 0
214 -205 -5049 0
214 215 -5049 0
-214 5050 0
204 5050 0
214 -204 -5050 0
203 5051 0
-5048 -5049 -5050 5051 0
-203 5050 -5051 0
-203 5049 -5051 0
-203 5048 -5051 0
-213 5052 0
-5048 -5049 -5050 5052 0
213 5050 -5052 0
213 5049 -5052 0
213 5048 -5052 0
-213 5053 0
203 5053 0
213 -203 -5053 0
202 5054 0
-5051 -5052 -5053 5054 0
-202 5053 -5054 0
-202 5052 -5054 0
-202 5051 -5054 0
-212 5055 0
-5051 -5052 -5053 5055 0
212 5053 -5055 0
212 5052 -5055 0
212 5051 -5055 0
-212 5056 0
202 5056 0
212 -202 -5056 0
206 5057 0
-5054 -5055 -5056 5057 0
-206 5056 -5057 0
-206 5055 -5057 0
-206 5054 -5057 0
-216 5058 0
-5054 -5055 -5056 5058 0
216 5056 -5058 0
216 5055 -5058 0
216 5054 -5058 0
-216 5059 0
206 5059 0
216 -206 -5059 0
-3536 5059 0
-3536 5058 0
-3536 5057 0
214 5060 0
215 -165 5060 0
-215 -214 -5060 0
165 -214 -5060 0
-164 5061 0
215 -165 5061 0
164 -215 -5061 0
164 165 -5061 0
-164 5062 0
214 5062 0
164 -214 -5062 0
213 5063 0
-5060 -5061 -5062 5063 0
-213 5062 -5063 0
-213 5061 -5063 0
-213 5060 -5063 0
-163 5064 0
-5060 -5061 -5062 5064 0
163 5062 -5064 0
163 5061 -5064 0
163 5060 -5064 0
-163 5065 0
213 5065 0
163 -213 -5065 0
212 5066 0
-5063 -5064 -5065 5066 0
-212 5065 -5066 0
-212 5064 -5066 0
-212 5063 -5066 0
-162 5067 0
-5063 -5064 -5065 5067 0
162 5065 -5067 0
162 5064 -5067 0
162 5063 -5067 0
-162 5068 0
212 5068 0
162 -212 -5068 0
216 5069 0
-5066 -5067 -5068 5069 0
-216 5068 -5069 0
-216 5067 -5069 0
-216 5066 -5069 0
-166 5070 0
-5066 -5067 -5068 5070 0
166 5068 -5070 0
166 5067 -5070 0
166 5066 -5070 0
-166 5071 0
216 5071 0
166 -216 -5071 0
-3418 5071 0
-3418 5070 0
-3418 5069 0
214 5072 0
215 -175 5072 0
-215 -214 -5072 0
175 -214 -5072 0
-174 5073 0
215 -175 5073 0
174 -215 -5073 0
174 175 -5073 0
-174 5074 0
214 5074 0
174 -214 -5074 0
213 5075 0
-5072 -5073 -5074 5075 0
-213 5074 -5075 0
-213 5073 -5075 0
-213 5072 -5075 0
-173 5076 0
-5072 -5073 -5074 5076 0
173 5074 -5076 0
173 5073 -5076 0
173 5072 -5076 0
-173 5077 0
213 5077 0
173 -213 -5077 0
212 5078 0
-5075 -5076 -5077 5078 0
-212 5077 -5078 0
-212 5076 -5078 0
-212 5075 -5078 0
-172 5079 0
-5075 -5076 -5077 5079 0
172 5077 -5079 0
172 5076 -5079 0
172 5075 -5079 0
-172 5080 0
212 5080 0
172 -212 -5080 0
216 5081 0
-5078 -5079 -5080 5081 0
-216 5080 -5081 0
-216 5079 -5081 0
-216 5078 -5081 0
-176 5082 0
-5078 -5079 -5080 5082 0
176 5080 -5082 0
176 5079 -5082 0
176 5078 -5082 0
-176 5083 0
216 5083 0
176 -216 -5083 0
-3416 5083 0
-3416 5082 0
-3416 5081 0
214 5084 0
215 -225 5084 0
-215 -214 -5084 0
225 -214 -5084 0
-224 5085 0
215 -225 5085 0
224 -215 -5085 0
224 225 -5085 0
-224 5086 0
214 5086 0
224 -214 -5086 0
213 5087 0
-5084 -5085 -5086 5087 0
-213 5086 -5087 0
-213 5085 -5087 0
-213 5084 -5087 0
-223 5088 0
-5084 -5085 -5086 5088 0
223 5086 -5088 0
223 5085 -5088 0
223 5084 -5088 0
-223 5089 0
213 5089 0
223 -213 -5089 0
212 5090 0
-5087 -5088 -5089 5090 0
-212 5089 -5090 0
-212 5088 -5090 0
-212 5087 -5090 0
-222 5091 0
-5087 -5088 -5089 5091 0
222 5089 -5091 0
222 5088 -5091 0
222 5087 -5091 0
-222 5092 0
212 5092 0
222 -212 -5092 0
216 5093 0
-5090 -5091 -5092 5093 0
-216 5092 -5093 0
-216 5091 -5093 0
-216 5090 -5093 0
-226 5094 0
-5090 -5091 -5092 5094 0
226 5092 -5094 0
226 5091 -5094 0
226 5090 -5094 0
-226 5095 0
216 5095 0
226 -216 -5095 0
-3419 5095 0
-3419 5094 0
-3419 5093 0
214 5096 0
215 -205 5096 0
-215 -214 -5096 0
205 -214 -5096 0
-204 5097 0
215 -205 5097 0
204 -215 -5097 0
204 205 -5097 0
-204 5098 0
214 5098 0
204 -214 -5098 0
213 5099 0
-5096 -5097 -5098 5099 0
-213 5098 -5099 0
-213 5097 -5099 0
-213 5096 -5099 0
-203 5100 0
-5096 -5097 -5098 5100 0
203 5098 -5100 0
203 5097 -5100 0
203 5096 -5100 0
-203 5101 0
213 5101 0
203 -213 -5101 0
212 5102 0
-5099 -5100 -5101 5102 0
-212 5101 -5102 0
-212 5100 -5102 0
-212 5099 -5102 0
-202 5103 0
-5099 -5100 -5101 5103 0
202 5101 -5103 0
202 5100 -5103 0
202 5099 -5103 0
-202 5104 0
212 5104 0
202 -212 -5104 0
216 5105 0
-5102 -5103 -5104 5105 0
-216 5104 -5105 0
-216 5103 -5105 0
-216 5102 -5105 0
-206 5106 0
-5102 -5103 -5104 5106 0
206 5104 -5106 0
206 5103 -5106 0
206 5102 -5106 0
-206 5107 0
216 5107 0
206 -216 -5107 0
-3420 5107 0
-3420 5106 0
-3420 5105 0
214 5108 0
215 -155 5108 0
-215 -214 -5108 0
155 -214 -5108 0
-154 5109 0
215 -155 5109 0
154 -215 -5109 0
154 155 -5109 0
-154 5110 0
214 5110 0
154 -214 -5110 0
213 5111 0
-5108 -5109 -5110 5111 0
-213 5110 -5111 0
-213 5109 -5111 0
-213 5108 -5111 0
-153 5112 0
-5108 -5109 -5110 5112 0
153 5110 -5112 0
153 5109 -5112 0
153 5108 -5112 0
-153 5113 0
213 5113 0
153 -213 -5113 0
212 5114 0
-5111 -5112 -5113 5114 0
-212 5113 -5114 0
-212 5112 -5114 0
-212 5111 -5114 0
-152 5115 0
-5111 -5112 -5113 5115 0
152 5113 -5115 0
152 5112 -5115 0
152 5111 -5115 0
-152 5116 0
212 5116 0
152 -212 -5116 0
216 5117 0
-5114 -5115 -5116 5117 0
-216 5116 -5117 0
-216 5115 -5117 0
-216 5114 -5117 0
-156 5118 0
-5114 -5115 -5116 5118 0
156 5116 -5118 0
156 5115 -5118 0
156 5114 -5118 0
-156 5119 0
216 5119 0
156 -216 -5119 0
-3417 5119 0
-3417 5118 0
-3417 5117 0
224 5120 0
225 -175 5120 0
-225 -224 -5120 0
175 -224 -5120 0
-174 5121 0
225 -175 5121 0
174 -225 -5121 0
174 175 -5121 0
-174 5122 0
224 5122 0
174 -224 -5122 0
223 5123 0
-5120 -5121 -5122 5123 0
-223 5122 -5123 0
-223 5121 -5123 0
-223 5120 -5123 0
-173 5124 0
-5120 -5121 -5122 5124 0
173 5122 -5124 0
173 5121 -5124 0
173 5120 -5124 0
-173 5125 0
223 5125 0
173 -223 -5125 0
222 5126 0
-5123 -5124 -5125 5126 0
-222 5125 -5126 0
-222 5124 -5126 0
-222 5123 -5126 0
-172 5127 0
-5123 -5124 -5125 5127 0
172 5125 -5127 0
172 5124 -5127 0
172 5123 -5127 0
-172 5128 0
222 5128 0
172 -222 -5128 0
226 5129 0
-5126 -5127 -5128 5129 0
-226 5128 -5129 0
-226 5127 -5129 0
-226 5126 -5129 0
-176 5130 0
-5126 -5127 -5128 5130 0
176 5128 -5130 0
176 5127 -5130 0
176 5126 -5130 0
-176 5131 0
226 5131 0
176 -226 -5131 0
-3426 5131 0
-3426 5130 0
-3426 5129 0
224 5132 0
225 -185 5132 0
-225 -224 -5132 0
185 -224 -5132 0
-184 5133 0
225 -185 5133 0
184 -225 -5133 0
184 185 -5133 0
-184 5134 0
224 5134 0
184 -224 -5134 0
223 5135 0
-5132 -5133 -5134 5135 0
-223 5134 -5135 0
-223 5133 -5135 0
-223 5132 -5135 0
-183 5136 0
-5132 -5133 -5134 5136 0
183 5134 -5136 0
183 5133 -5136 0
183 5132 -5136 0
-183 5137 0
223 5137 0
183 -223 -5137 0
222 5138 0
-5135 -5136 -5137 5138 0
-222 5137 -5138 0
-222 5136 -5138 0
-222 5135 -5138 0
-182 5139 0
-5135 -5136 -5137 5139 0
182 5137 -5139 0
182 5136 -5139 0
182 5135 -5139 0
-182 5140 0
222 5140 0
182 -222 -5140 0
226 5141 0
-5138 -5139 -5140 5141 0
-226 5140 -5141 0
-226 5139 -5141 0
-226 5138 -5141 0
-186 5142 0
-5138 -5139 -5140 5142 0
186 5140 -5142 0
186 5139 -5142 0
186 5138 -5142 0
-186 5143 0
226 5143 0
186 -226 -5143 0
-3424 5143 0
-3424 5142 0
-3424 5141 0
224 5144 0
225 -235 5144 0
-225 -224 -5144 0
235 -224 -5144 0
-234 5145 0
225 -235 5145 0
234 -225 -5145 0
234 235 -5145 0
-234 5146 0
224 5146 0
234 -224 -5146 0
223 5147 0
-5144 -5145 -5146 5147 0
-223 5146 -5147 0
-223 5145 -5147 0
-223 5144 -5147 0
-233 5148 0
-5144 -5145 -5146 5148 0
233 5146 -5148 0
233 5145 -5148 0
233 5144 -5148 0
-233 5149 0
223 5149 0
233 -223 -5149 0
222 5150 0
-5147 -5148 -5149 5150 0
-222 5149 -5150 0
-222 5148 -5150 0
-222 5147 -5150 0
-232 5151 0
-5147 -5148 -5149 5151 0
232 5149 -5151 0
232 5148 -5151 0
232 5147 -5151 0
-232 5152 0
222 5152 0
232 -222 -5152 0
226 5153 0
-5150 -5151 -5152 5153 0
-226 5152 -5153 0
-226 5151 -5153 0
-226 5150 -5153 0
-236 5154 0
-5150 -5151 -5152 5154 0
236 5152 -5154 0
236 5151 -5154 0
236 5150 -5154 0
-236 5155 0
226 5155 0
236 -226 -5155 0
-3427 5155 0
-3427 5154 0
-3427 5153 0
224 5156 0
225 -215 5156 0
-225 -224 -5156 0
215 -224 -5156 0
-214 5157 0
225 -215 5157 0
214 -225 -5157 0
214 215 -5157 0
-214 5158 0
224 5158 0
214 -224 -5158 0
223 5159 0
-5156 -5157 -5158 5159 0
-223 5158 -5159 0
-223 5157 -5159 0
-223 5156 -5159 0
-213 5160 0
-5156 -5157 -5158 5160 0
213 5158 -5160 0
213 5157 -5160 0
213 5156 -5160 0
-213 5161 0
223 5161 0
213 -223 -5161 0
222 5162 0
-5159 -5160 -5161 5162 0
-222 5161 -5162 0
-222 5160 -5162 0
-222 5159 -5162 0
-212 5163 0
-5159 -5160 -5161 5163 0
212 5161 -5163 0
212 5160 -5163 0
212 5159 -5163 0
-212 5164 0
222 5164 0
212 -222 -5164 0
226 5165 0
-5162 -5163 -5164 5165 0
-226 5164 -5165 0
-226 5163 -5165 0
-226 5162 -5165 0
-216 5166 0
-5162 -5163 -5164 5166 0
216 5164 -5166 0
216 5163 -5166 0
216 5162 -5166 0
-216 5167 0
226 5167 0
216 -226 -5167 0
-3428 5167 0
-3428 5166 0
-3428 5165 0
224 5168 0
225 -165 5168 0
-225 -224 -5168 0
165 -224 -5168 0
-164 5169 0
225 -165 5169 0
164 -225 -5169 0
164 165 -5169 0
-164 5170 0
224 5170 0
164 -224 -5170 0
223 5171 0
-5168 -5169 -5170 5171 0
-223 5170 -5171 0
-223 5169 -5171 0
-223 5168 -5171 0
-163 5172 0
-5168 -5169 -5170 5172 0
163 5170 -5172 0
163 5169 -5172 0
163 5168 -5172 0
-163 5173 0
223 5173 0
163 -223 -5173 0
222 5174 0
-5171 -5172 -5173 5174 0
-222 5173 -5174 0
-222 5172 -5174 0
-222 5171 -5174 0
-162 5175 0
-5171 -5172 -5173 5175 0
162 5173 -5175 0
162 5172 -5175 0
162 5171 -5175 0
-162 5176 0
222 5176 0
162 -222 -5176 0
226 5177 0
-5174 -5175 -5176 5177 0
-226 5176 -5177 0
-226 5175 -5177 0
-226 5174 -5177 0
-166 5178 0
-5174 -5175 -5176 5178 0
166 5176 -5178 0
166 5175 -5178 0
166 5174 -5178 0
-166 5179 0
226 5179 0
166 -226 -5179 0
-3425 5179 0
-3425 5178 0
-3425 5177 0
234 5180 0
235 -185 5180 0
-235 -234 -5180 0
185 -234 -5180 0
-184 5181 0
235 -185 5181 0
184 -235 -5181 0
184 185 -5181 0
-184 5182 0
234 5182 0
184 -234 -5182 0
233 5183 0
-5180 -5181 -5182 5183 0
-233 5182 -5183 0
-233 5181 -5183 0
-233 5180 -5183 0
-183 5184 0
-5180 -5181 -5182 5184 0
183 5182 -5184 0
183 5181 -5184 0
183 5180 -5184 0
-183 5185 0
233 5185 0
183 -233 -5185 0
232 5186 0
-5183 -5184 -5185 5186 0
-232 5185 -5186 0
-232 5184 -5186 0
-232 5183 -5186 0
-182 5187 0
-5183 -5184 -5185 5187 0
182 5185 -5187 0
182 5184 -5187 0
182 5183 -5187 0
-182 5188 0
232 5188 0
182 -232 -5188 0
236 5189 0
-5186 -5187 -5188 5189 0
-236 5188 -5189 0
-236 5187 -5189 0
-236 5186 -5189 0
-186 5190 0
-5186 -5187 -5188 5190 0
186 5188 -5190 0
186 5187 -5190 0
186 5186 -5190 0
-186 5191 0
236 5191 0
186 -236 -5191 0
-3434 5191 0
-3434 5190 0
-3434 5189 0
234 5192 0
235 -195 5192 0
-235 -234 -5192 0
195 -234 -5192 0
-194 5193 0
235 -195 5193 0
194 -235 -5193 0
194 195 -5193 0
-194 5194 0
234 5194 0
194 -234 -5194 0
233 5195 0
-5192 -5193 -5194 5195 0
-233 5194 -5195 0
-233 5193 -5195 0
-233 5192 -5195 0
-193 5196 0
-5192 -5193 -5194 5196 0
193 5194 -5196 0
193 5193 -5196 0
193 5192 -5196 0
-193 5197 0
233 5197 0
193 -233 -5197 0
232 5198 0
-5195 -5196 -5197 5198 0
-232 5197 -5198 0
-232 5196 -5198 0
-232 5195 -5198 0
-192 5199 0
-5195 -5196 -5197 5199 0
192 5197 -5199 0
192 5196 -5199 0
192 5195 -5199 0
-192 5200 0
232 5200 0
192 -232 -5200 0
236 5201 0
-5198 -5199 -5200 5201 0
-236 5200 -5201 0
-236 5199 -5201 0
-236 5198 -5201 0
-196 5202 0
-5198 -5199 -5200 5202 0
196 5200 -5202 0
196 5199 -5202 0
196 5198 -5202 0
-196 5203 0
236 5203 0
196 -236 -5203 0
-3432 5203 0
-3432 5202 0
-3432 5201 0
234 5204 0
235 -245 5204 0
-235 -234 -5204 0
245 -234 -5204 0
-244 5205 0
235 -245 5205 0
244 -235 -5205 0
244 245 -5205 0
-244 5206 0
234 5206 0
244 -234 -5206 0
233 5207 0
-5204 -5205 -5206 5207 0
-233 5206 -5207 0
-233 5205 -5207 0
-233 5204 -5207 0
-243 5208 0
-5204 -5205 -5206 5208 0
243 5206 -5208 0
243 5205 -5208 0
243 5204 -5208 0
-243 5209 0
233 5209 0
243 -233 -5209 0
232 5210 0
-5207 -5208 -5209 5210 0
-232 5209 -5210 0
-232 5208 -5210 0
-232 5207 -5210 0
-242 5211 0
-5207 -5208 -5209 5211 0
242 5209 -5211 0
242 5208 -5211 0
242 5207 -5211 0
-242 5212 0
232 5212 0
242 -232 -5212 0
236 5213 0
-5210 -5211 -5212 5213 0
-236 5212 -5213 0
-236 5211 -5213 0
-236 5210 -5213 0
-246 5214 0
-5210 -5211 -5212 5214 0
246 5212 -5214 0
246 5211 -5214 0
246 5210 -5214 0
-246 5215 0
236 5215 0
246 -236 -5215 0
-3435 5215 0
-3435 5214 0
-3435 5213 0
234 5216 0
235 -225 5216 0
-235 -234 -5216 0
225 -234 -5216 0
-224 5217 0
235 -225 5217 0
224 -235 -5217 0
224 225 -5217 0
-224 5218 0
234 5218 0
224 -234 -5218 0
233 5219 0
-5216 -5217 -5218 5219 0
-233 5218 -5219 0
-233 5217 -5219 0
-233 5216 -5219 0
-223 5220 0
-5216 -5217 -5218 5220 0
223 5218 -5220 0
223 5217 -5220 0
223 5216 -5220 0
-223 5221 0
233 5221 0
223 -233 -5221 0
232 5222 0
-5219 -5220 -5221 5222 0
-232 5221 -5222 0
-232 5220 -5222 0
-232 5219 -5222 0
-222 5223 0
-5219 -5220 -5221 5223 0
222 5221 -5223 0
222 5220 -5223 0
222 5219 -5223 0
-222 5224 0
232 5224 0
222 -232 -5224 0
236 5225 0
-5222 -5223 -5224 5225 0
-236 5224 -5225 0
-236 5223 -5225 0
-236 5222 -5225 0
-226 5226 0
-5222 -5223 -5224 5226 0
226 5224 -5226 0
226 5223 -5226 0
226 5222 -5226 0
-226 5227 0
236 5227 0
226 -236 -5227 0
-3436 5227 0
-3436 5226 0
-3436 5225 0
234 5228 0
235 -175 5228 0
-235 -234 -5228 0
175 -234 -5228 0
-174 5229 0
235 -175 5229 0
174 -235 -5229 0
174 175 -5229 0
-174 5230 0
234 5230 0
174 -234 -5230 0
233 5231 0
-5228 -5229 -5230 5231 0
-233 5230 -5231 0
-233 5229 -5231 0
-233 5228 -5231 0
-173 5232 0
-5228 -5229 -5230 5232 0
173 5230 -5232 0
173 5229 -5232 0
173 5228 -5232 0
-173 5233 0
233 5233 0
173 -233 -5233 0
232 5234 0
-5231 -5232 -5233 5234 0
-232 5233 -5234 0
-232 5232 -5234 0
-232 5231 -5234 0
-172 5235 0
-5231 -5232 -5233 5235 0
172 5233 -5235 0
172 5232 -5235 0
172 5231 -5235 0
-172 5236 0
232 5236 0
172 -232 -5236 0
236 5237 0
-5234 -5235 -5236 5237 0
-236 5236 -5237 0
-236 5235 -5237 0
-236 5234 -5237 0
-176 5238 0
-5234 -5235 -5236 5238 0
176 5236 -5238 0
176 5235 -5238 0
176 5234 -5238 0
-176 5239 0
236 5239 0
176 -236 -5239 0
-3433 5239 0
-3433 5238 0
-3433 5237 0
244 5240 0
245 -195 5240 0
-245 -244 -5240 0
195 -244 -5240 0
-194 5241 0
245 -195 5241 0
194 -245 -5241 0
194 195 -5241 0
-194 5242 0
244 5242 0
194 -244 -5242 0
243 5243 0
-5240 -5241 -5242 5243 0
-243 5242 -5243 0
-243 5241 -5243 0
-243 5240 -5243 0
-193 5244 0
-5240 -5241 -5242 5244 0
193 5242 -5244 0
193 5241 -5244 0
193 5240 -5244 0
-193 5245 0
243 5245 0
193 -243 -5245 0
242 5246 0
-5243 -5244 -5245 5246 0
-242 5245 -5246 0
-242 5244 -5246 0
-242 5243 -5246 0
-192 5247 0
-5243 -5244 -5245 5247 0
192 5245 -5247 0
192 5244 -5247 0
192 5243 -5247 0
-192 5248 0
242 5248 0
192 -242 -5248 0
246 5249 0
-5246 -5247 -5248 5249 0
-246 5248 -5249 0
-246 5247 -5249 0
-246 5246 -5249 0
-196 5250 0
-5246 -5247 -5248 5250 0
196 5248 -5250 0
196 5247 -5250 0
196 5246 -5250 0
-196 5251 0
246 5251 0
196 -246 -5251 0
-3530 5251 0
-3530 5250 0
-3530 5249 0
244 5252 0
245 -235 5252 0
-245 -244 -5252 0
235 -244 -5252 0
-234 5253 0
245 -235 5253 0
234 -245 -5253 0
234 235 -5253 0
-234 5254 0
244 5254 0
234 -244 -5254 0
243 5255 0
-5252 -5253 -5254 5255 0
-243 5254 -5255 0
-243 5253 -5255 0
-243 5252 -5255 0
-233 5256 0
-5252 -5253 -5254 5256 0
233 5254 -5256 0
233 5253 -5256 0
233 5252 -5256 0
-233 5257 0
243 5257 0
233 -243 -5257 0
242 5258 0
-5255 -5256 -5257 5258 0
-242 5257 -5258 0
-242 5256 -5258 0
-242 5255 -5258 0
-232 5259 0
-5255 -5256 -5257 5259 0
232 5257 -5259 0
232 5256 -5259 0
232 5255 -5259 0
-232 5260 0
242 5260 0
232 -242 -5260 0
246 5261 0
-5258 -5259 -5260 5261 0
-246 5260 -5261 0
-246 5259 -5261 0
-246 5258 -5261 0
-236 5262 0
-5258 -5259 -5260 5262 0
236 5260 -5262 0
236 5259 -5262 0
236 5258 -5262 0
-236 5263 0
246 5263 0
236 -246 -5263 0
-3544 5263 0
-3544 5262 0
-3544 5261 0
244 5264 0
245 -185 5264 0
-245 -244 -5264 0
185 -244 -5264 0
-184 5265 0
245 -185 5265 0
184 -245 -5265 0
184 185 -5265 0
-184 5266 0
244 5266 0
184 -244 -5266 0
243 5267 0
-5264 -5265 -5266 5267 0
-243 5266 -5267 0
-243 5265 -5267 0
-243 5264 -5267 0
-183 5268 0
-5264 -5265 -5266 5268 0
183 5266 -5268 0
183 5265 -5268 0
183 5264 -5268 0
-183 5269 0
243 5269 0
183 -243 -5269 0
242 5270 0
-5267 -5268 -5269 5270 0
-242 5269 -5270 0
-242 5268 -5270 0
-242 5267 -5270 0
-182 5271 0
-5267 -5268 -5269 5271 0
182 5269 -5271 0
182 5268 -5271 0
182 5267 -5271 0
-182 5272 0
242 5272 0
182 -242 -5272 0
246 5273 0
-5270 -5271 -5272 5273 0
-246 5272 -5273 0
-246 5271 -5273 0
-246 5270 -5273 0
-186 5274 0
-5270 -5271 -5272 5274 0
186 5272 -5274 0
186 5271 -5274 0
186 5270 -5274 0
-186 5275 0
246 5275 0
186 -246 -5275 0
-3526 5275 0
-3526 5274 0
-3526 5273 0
3312 5276 0
11 5276 0
-11 -3312 -5276 0
3334 5277 0
51 5277 0
-51 -3334 -5277 0
-5276 5277 -5278 0
5276 -5277 -5278 0
-5276 -5277 5278 0
5276 5277 5278 0
3440 5279 0
61 5279 0
-3440 -61 -5279 0
1 5278 5279 -5280 0
-1 -5278 5279 -5280 0
-1 5278 -5279 -5280 0
1 -5278 -5279 -5280 0
-1 -5278 -5279 5280 0
1 5278 -5279 5280 0
1 -5278 5279 5280 0
-1 5278 5279 5280 0
4 5281 0
2 3 5281 0
-2 -4 -5281 0
-3 -4 -5281 0
-5 -5280 0
-6 -5280 0
5281 -5280 0
3312 5282 0
17 5282 0
-17 -3312 -5282 0
3334 5283 0
57 5283 0
-57 -3334 -5283 0
-5282 5283 -5284 0
5282 -5283 -5284 0
-5282 -5283 5284 0
5282 5283 5284 0
3440 5285 0
67 5285 0
-3440 -67 -5285 0
7 5284 5285 -5286 0
-7 -5284 5285 -5286 0
-7 5284 -5285 -5286 0
7 -5284 -5285 -5286 0
-7 -5284 -5285 5286 0
7 5284 -5285 5286 0
7 -5284 5285 5286 0
-7 5284 5285 5286 0
-5 -5286 0
-6 -5286 0
5281 -5286 0
3312 5287 0
18 5287 0
-18 -3312 -5287 0
3334 5288 0
58 5288 0
-58 -3334 -5288 0
-5287 5288 -5289 0
5287 -5288 -5289 0
-5287 -5288 5289 0
5287 5288 5289 0
3440 5290 0
68 5290 0
-3440 -68 -5290 0
8 5289 5290 -5291 0
-8 -5289 5290 -5291 0
-8 5289 -5290 -5291 0
8 -5289 -5290 -5291 0
-8 -5289 -5290 5291 0
8 5289 -5290 5291 0
8 -5289 5290 5291 0
-8 5289 5290 5291 0
-5 -5291 0
-6 -5291 0
5281 -5291 0
3312 5292 0
19 5292 0
-19 -3312 -5292 0
3334 5293 0
59 5293 0
-59 -3334 -5293 0
-5292 5293 -5294 0
5292 -5293 -5294 0
-5292 -5293 5294 0
5292 5293 5294 0
3440 5295 0
69 5295 0
-3440 -69 -5295 0
9 5294 5295 -5296 0
-9 -5294 5295 -5296 0
-9 5294 -5295 -5296 0
9 -5294 -5295 -5296 0
-9 -5294 -5295 5296 0
9 5294 -5295 5296 0
9 -5294 5295 5296 0
-9 5294 5295 5296 0
-5 -5296 0
-6 -5296 0
5281 -5296 0
3312 5297 0
20 5297 0
-20 -3312 -5297 0
3334 5298 0
60 5298 0
-60 -3334 -5298 0
-5297 5298 -5299 0
5297 -5298 -5299 0
-5297 -5298 5299 0
5297 5298 5299 0
3440 5300 0
70 5300 0
-3440 -70 -5300 0
10 5299 5300 -5301 0
-10 -5299 5300 -5301 0
-10 5299 -5300 -5301 0
10 -5299 -5300 -5301 0
-10 -5299 -5300 5301 0
10 5299 -5300 5301 0
10 -5299 5300 5301 0
-10 5299 5300 5301 0
-5 -5301 0
-6 -5301 0
5281 -5301 0
3320 5302 0
21 5302 0
-21 -3320 -5302 0
3332 5303 0
51 5303 0
-3332 -51 -5303 0
3442 5304 0
61 5304 0
-61 -3442 -5304 0
-5303 5304 -5305 0
5303 -5304 -5305 0
-5303 -5304 5305 0
5303 5304 5305 0
3441 5306 0
1 5306 0
-1 -3441 -5306 0
5302 5305 5306 -5307 0
-5302 -5305 5306 -5307 0
-5302 5305 -5306 -5307 0
5302 -5305 -5306 -5307 0
-5302 -5305 -5306 5307 0
5302 5305 -5306 5307 0
5302 -5305 5306 5307 0
-5302 5305 5306 5307 0
3443 5308 0
71 5308 0
-3443 -71 -5308 0
11 5307 5308 -5309 0
-11 -5307 5308 -5309 0
-11 5307 -5308 -5309 0
11 -5307 -5308 -5309 0
-11 -5307 -5308 5309 0
11 5307 -5308 5309 0
11 -5307 5308 5309 0
-11 5307 5308 5309 0
-12 -5309 0
-16 -5309 0
3313 -5309 0
3320 5310 0
27 5310 0
-27 -3320 -5310 0
3332 5311 0
57 5311 0
-3332 -57 -5311 0
3442 5312 0
67 5312 0
-67 -3442 -5312 0
-5311 5312 -5313 0
5311 -5312 -5313 0
-5311 -5312 5313 0
5311 5312 5313 0
3441 5314 0
7 5314 0
-7 -3441 -5314 0
5310 5313 5314 -5315 0
-5310 -5313 5314 -5315 0
-5310 5313 -5314 -5315 0
5310 -5313 -5314 -5315 0
-5310 -5313 -5314 5315 0
5310 5313 -5314 5315 0
5310 -5313 5314 5315 0
-5310 5313 5314 5315 0
3443 5316 0
77 5316 0
-3443 -77 -5316 0
17 5315 5316 -5317 0
-17 -5315 5316 -5317 0
-17 5315 -5316 -5317 0
17 -5315 -5316 -5317 0
-17 -5315 -5316 5317 0
17 5315 -5316 5317 0
17 -5315 5316 5317 0
-17 5315 5316 5317 0
-12 -5317 0
-16 -5317 0
3313 -5317 0
3320 5318 0
28 5318 0
-28 -3320 -5318 0
3332 5319 0
58 5319 0
-3332 -58 -5319 0
3442 5320 0
68 5320 0
-68 -3442 -5320 0
-5319 5320 -5321 0
5319 -5320 -5321 0
-5319 -5320 5321 0
5319 5320 5321 0
3441 5322 0
8 5322 0
-8 -3441 -5322 0
5318 5321 5322 -5323 0
-5318 -5321 5322 -5323 0
-5318 5321 -5322 -5323 0
5318 -5321 -5322 -5323 0
-5318 -5321 -5322 5323 0
5318 5321 -5322 5323 0
5318 -5321 5322 5323 0
-5318 5321 5322 5323 0
3443 5324 0
78 5324 0
-3443 -78 -5324 0
18 5323 5324 -5325 0
-18 -5323 5324 -5325 0
-18 5323 -5324 -5325 0
18 -5323 -5324 -5325 0
-18 -5323 -5324 5325 0
18 5323 -5324 5325 0
18 -5323 5324 5325 0
-18 5323 5324 5325 0
-12 -5325 0
-16 -5325 0
3313 -5325 0
3320 5326 0
29 5326 0
-29 -3320 -5326 0
3332 5327 0
59 5327 0
-3332 -59 -5327 0
3442 5328 0
69 5328 0
-69 -3442 -5328 0
-5327 5328 -5329 0
5327 -5328 -5329 0
-5327 -5328 5329 0
5327 5328 5329 0
3441 5330 0
9 5330 0
-9 -3441 -5330 0
5326 5329 5330 -5331 0
-5326 -5329 5330 -5331 0
-5326 5329 -5330 -5331 0
5326 -5329 -5330 -5331 0
-5326 -5329 -5330 5331 0
5326 5329 -5330 5331 0
5326 -5329 5330 5331 0
-5326 5329 5330 5331 0
3443 5332 0
79 5332 0
-3443 -79 -5332 0
19 5331 5332 -5333 0
-19 -5331 5332 -5333 0
-19 5331 -5332 -5333 0
19 -5331 -5332 -5333 0
-19 -5331 -5332 5333 0
19 5331 -5332 5333 0
19 -5331 5332 5333 0
-19 5331 5332 5333 0
-12 -5333 0
-16 -5333 0
3313 -5333 0
3320 5334 0
30 5334 0
-30 -3320 -5334 0
3332 5335 0
60 5335 0
-3332 -60 -5335 0
3442 5336 0
70 5336 0
-70 -3442 -5336 0
-5335 5336 -5337 0
5335 -5336 -5337 0
-5335 -5336 5337 0
5335 5336 5337 0
3441 5338 0
10 5338 0
-10 -3441 -5338 0
5334 5337 5338 -5339 0
-5334 -5337 5338 -5339 0
-5334 5337 -5338 -5339 0
5334 -5337 -5338 -5339 0
-5334 -5337 -5338 5339 0
5334 5337 -5338 5339 0
5334 -5337 5338 5339 0
-5334 5337 5338 5339 0
3443 5340 0
80 5340 0
-3443 -80 -5340 0
20 5339 5340 -5341 0
-20 -5339 5340 -5341 0
-20 5339 -5340 -5341 0
20 -5339 -5340 -5341 0
-20 -5339 -5340 5341 0
20 5339 -5340 5341 0
20 -5339 5340 5341 0
-20 5339 5340 5341 0
-12 -5341 0
-16 -5341 0
3313 -5341 0
3328 5342 0
31 5342 0
-31 -3328 -5342 0
3445 5343 0
61 5343 0
-3445 -61 -5343 0
3446 5344 0
71 5344 0
-71 -3446 -5344 0
-5343 5344 -5345 0
5343 -5344 -5345 0
-5343 -5344 5345 0
5343 5344 5345 0
3310 5346 0
11 5346 0
-11 -3310 -5346 0
5342 5345 5346 -5347 0
-5342 -5345 5346 -5347 0
-5342 5345 -5346 -5347 0
5342 -5345 -5346 -5347 0
-5342 -5345 -5346 5347 0
5342 5345 -5346 5347 0
5342 -5345 5346 5347 0
-5342 5345 5346 5347 0
3447 5348 0
81 5348 0
-3447 -81 -5348 0
21 5347 5348 -5349 0
-21 -5347 5348 -5349 0
-21 5347 -5348 -5349 0
21 -5347 -5348 -5349 0
-21 -5347 -5348 5349 0
21 5347 -5348 5349 0
21 -5347 5348 5349 0
-21 5347 5348 5349 0
-22 -5349 0
-26 -5349 0
3321 -5349 0
3328 5350 0
37 5350 0
-37 -3328 -5350 0
3445 5351 0
67 5351 0
-3445 -67 -5351 0
3446 5352 0
77 5352 0
-77 -3446 -5352 0
-5351 5352 -5353 0
5351 -5352 -5353 0
-5351 -5352 5353 0
5351 5352 5353 0
3310 5354 0
17 5354 0
-17 -3310 -5354 0
5350 5353 5354 -5355 0
-5350 -5353 5354 -5355 0
-5350 5353 -5354 -5355 0
5350 -5353 -5354 -5355 0
-5350 -5353 -5354 5355 0
5350 5353 -5354 5355 0
5350 -5353 5354 5355 0
-5350 5353 5354 5355 0
3447 5356 0
87 5356 0
-3447 -87 -5356 0
27 5355 5356 -5357 0
-27 -5355 5356 -5357 0
-27 5355 -5356 -5357 0
27 -5355 -5356 -5357 0
-27 -5355 -5356 5357 0
27 5355 -5356 5357 0
27 -5355 5356 5357 0
-27 5355 5356 5357 0
-22 -5357 0
-26 -5357 0
3321 -5357 0
3328 5358 0
38 5358 0
-38 -3328 -5358 0
3445 5359 0
68 5359 0
-3445 -68 -5359 0
3446 5360 0
78 5360 0
-78 -3446 -5360 0
-5359 5360 -5361 0
5359 -5360 -5361 0
-5359 -5360 5361 0
5359 5360 5361 0
3310 5362 0
18 5362 0
-18 -3310 -5362 0
5358 5361 5362 -5363 0
-5358 -5361 5362 -5363 0
-5358 5361 -5362 -5363 0
5358 -5361 -5362 -5363 0
-5358 -5361 -5362 5363 0
5358 5361 -5362 5363 0
5358 -5361 5362 5363 0
-5358 5361 5362 5363 0
3447 5364 0
88 5364 0
-3447 -88 -5364 0
28 5363 5364 -5365 0
-28 -5363 5364 -5365 0
-28 5363 -5364 -5365 0
28 -5363 -5364 -5365 0
-28 -5363 -5364 5365 0
28 5363 -5364 5365 0
28 -5363 5364 5365 0
-28 5363 5364 5365 0
-22 -5365 0
-26 -5365 0
3321 -5365 0
3328 5366 0
39 5366 0
-39 -3328 -5366 0
3445 5367 0
69 5367 0
-3445 -69 -5367 0
3446 5368 0
79 5368 0
-79 -3446 -5368 0
-5367 5368 -5369 0
5367 -5368 -5369 0
-5367 -5368 5369 0
5367 5368 5369 0
3310 5370 0
19 5370 0
-19 -3310 -5370 0
5366 5369 5370 -5371 0
-5366 -5369 5370 -5371 0
-5366 5369 -5370 -5371 0
5366 -5369 -5370 -5371 0
-5366 -5369 -5370 5371 0
5366 5369 -5370 5371 0
5366 -5369 5370 5371 0
-5366 5369 5370 5371 0
3447 5372 0
89 5372 0
-3447 -89 -5372 0
29 5371 5372 -5373 0
-29 -5371 5372 -5373 0
-29 5371 -5372 -5373 0
29 -5371 -5372 -5373 0
-29 -5371 -5372 5373 0
29 5371 -5372 5373 0
29 -5371 5372 5373 0
-29 5371 5372 5373 0
-22 -5373 0
-26 -5373 0
3321 -5373 0
3328 5374 0
40 5374 0
-40 -3328 -5374 0
3445 5375 0
70 5375 0
-3445 -70 -5375 0
3446 5376 0
80 5376 0
-80 -3446 -5376 0
-5375 5376 -5377 0
5375 -5376 -5377 0
-5375 -5376 5377 0
5375 5376 5377 0
3310 5378 0
20 5378 0
-20 -3310 -5378 0
5374 5377 5378 -5379 0
-5374 -5377 5378 -5379 0
-5374 5377 -5378 -5379 0
5374 -5377 -5378 -5379 0
-5374 -5377 -5378 5379 0
5374 5377 -5378 5379 0
5374 -5377 5378 5379 0
-5374 5377 5378 5379 0
3447 5380 0
90 5380 0
-3447 -90 -5380 0
30 5379 5380 -5381 0
-30 -5379 5380 -5381 0
-30 5379 -5380 -5381 0
30 -5379 -5380 -5381 0
-30 -5379 -5380 5381 0
30 5379 -5380 5381 0
30 -5379 5380 5381 0
-30 5379 5380 5381 0
-22 -5381 0
-26 -5381 0
3321 -5381 0
3449 5382 0
41 5382 0
-41 -3449 -5382 0
3450 5383 0
71 5383 0
-3450 -71 -5383 0
3451 5384 0
81 5384 0
-81 -3451 -5384 0
-5383 5384 -5385 0
5383 -5384 -5385 0
-5383 -5384 5385 0
5383 5384 5385 0
3318 5386 0
21 5386 0
-21 -3318 -5386 0
5382 5385 5386 -5387 0
-5382 -5385 5386 -5387 0
-5382 5385 -5386 -5387 0
5382 -5385 -5386 -5387 0
-5382 -5385 -5386 5387 0
5382 5385 -5386 5387 0
5382 -5385 5386 5387 0
-5382 5385 5386 5387 0
3352 5388 0
91 5388 0
-3352 -91 -5388 0
31 5387 5388 -5389 0
-31 -5387 5388 -5389 0
-31 5387 -5388 -5389 0
31 -5387 -5388 -5389 0
-31 -5387 -5388 5389 0
31 5387 -5388 5389 0
31 -5387 5388 5389 0
-31 5387 5388 5389 0
-32 -5389 0
-36 -5389 0
3329 -5389 0
3449 5390 0
47 5390 0
-47 -3449 -5390 0
3450 5391 0
77 5391 0
-3450 -77 -5391 0
3451 5392 0
87 5392 0
-87 -3451 -5392 0
-5391 5392 -5393 0
5391 -5392 -5393 0
-5391 -5392 5393 0
5391 5392 5393 0
3318 5394 0
27 5394 0
-27 -3318 -5394 0
5390 5393 5394 -5395 0
-5390 -5393 5394 -5395 0
-5390 5393 -5394 -5395 0
5390 -5393 -5394 -5395 0
-5390 -5393 -5394 5395 0
5390 5393 -5394 5395 0
5390 -5393 5394 5395 0
-5390 5393 5394 5395 0
3352 5396 0
97 5396 0
-3352 -97 -5396 0
37 5395 5396 -5397 0
-37 -5395 5396 -5397 0
-37 5395 -5396 -5397 0
37 -5395 -5396 -5397 0
-37 -5395 -5396 5397 0
37 5395 -5396 5397 0
37 -5395 5396 5397 0
-37 5395 5396 5397 0
-32 -5397 0
-36 -5397 0
3329 -5397 0
3449 5398 0
48 5398 0
-48 -3449 -5398 0
3450 5399 0
78 5399 0
-3450 -78 -5399 0
3451 5400 0
88 5400 0
-88 -3451 -5400 0
-5399 5400 -5401 0
5399 -5400 -5401 0
-5399 -5400 5401 0
5399 5400 5401 0
3318 5402 0
28 5402 0
-28 -3318 -5402 0
5398 5401 5402 -5403 0
-5398 -5401 5402 -5403 0
-5398 5401 -5402 -5403 0
5398 -5401 -5402 -5403 0
-5398 -5401 -5402 5403 0
5398 5401 -5402 5403 0
5398 -5401 5402 5403 0
-5398 5401 5402 5403 0
3352 5404 0
98 5404 0
-3352 -98 -5404 0
38 5403 5404 -5405 0
-38 -5403 5404 -5405 0
-38 5403 -5404 -5405 0
38 -5403 -5404 -5405 0
-38 -5403 -5404 5405 0
38 5403 -5404 5405 0
38 -5403 5404 5405 0
-38 5403 5404 5405 0
-32 -5405 0
-36 -5405 0
3329 -5405 0
3449 5406 0
49 5406 0
-49 -3449 -5406 0
3450 5407 0
79 5407 0
-3450 -79 -5407 0
3451 5408 0
89 5408 0
-89 -3451 -5408 0
-5407 5408 -5409 0
5407 -5408 -5409 0
-5407 -5408 5409 0
5407 5408 5409 0
3318 5410 0
29 5410 0
-29 -3318 -5410 0
5406 5409 5410 -5411 0
-5406 -5409 5410 -5411 0
-5406 5409 -5410 -5411 0
5406 -5409 -5410 -5411 0
-5406 -5409 -5410 5411 0
5406 5409 -5410 5411 0
5406 -5409 5410 5411 0
-5406 5409 5410 5411 0
3352 5412 0
99 5412 0
-3352 -99 -5412 0
39 5411 5412 -5413 0
-39 -5411 5412 -5413 0
-39 5411 -5412 -5413 0
39 -5411 -5412 -5413 0
-39 -5411 -5412 5413 0
39 5411 -5412 5413 0
39 -5411 5412 5413 0
-39 5411 5412 5413 0
-32 -5413 0
-36 -5413 0
3329 -5413 0
3449 5414 0
50 5414 0
-50 -3449 -5414 0
3450 5415 0
80 5415 0
-3450 -80 -5415 0
3451 5416 0
90 5416 0
-90 -3451 -5416 0
-5415 5416 -5417 0
5415 -5416 -5417 0
-5415 -5416 5417 0
5415 5416 5417 0
3318 5418 0
30 5418 0
-30 -3318 -5418 0
5414 5417 5418 -5419 0
-5414 -5417 5418 -5419 0
-5414 5417 -5418 -5419 0
5414 -5417 -5418 -5419 0
-5414 -5417 -5418 5419 0
5414 5417 -5418 5419 0
5414 -5417 5418 5419 0
-5414 5417 5418 5419 0
3352 5420 0
100 5420 0
-3352 -100 -5420 0
40 5419 5420 -5421 0
-40 -5419 5420 -5421 0
-40 5419 -5420 -5421 0
40 -5419 -5420 -5421 0
-40 -5419 -5420 5421 0
40 5419 -5420 5421 0
40 -5419 5420 5421 0
-40 5419 5420 5421 0
-32 -5421 0
-36 -5421 0
3329 -5421 0
3454 5422 0
81 5422 0
-3454 -81 -5422 0
3354 5423 0
91 5423 0
-91 -3354 -5423 0
-5422 5423 -5424 0
5422 -5423 -5424 0
-5422 -5423 5424 0
5422 5423 5424 0
3326 5425 0
31 5425 0
-31 -3326 -5425 0
41 5424 5425 -5426 0
-41 -5424 5425 -5426 0
-41 5424 -5425 -5426 0
41 -5424 -5425 -5426 0
-41 -5424 -5425 5426 0
41 5424 -5425 5426 0
41 -5424 5425 5426 0
-41 5424 5425 5426 0
43 5427 0
44 45 5427 0
-44 -43 -5427 0
-45 -43 -5427 0
-42 -5426 0
-46 -5426 0
5427 -5426 0
3454 5428 0
87 5428 0
-3454 -87 -5428 0
3354 5429 0
97 5429 0
-97 -3354 -5429 0
-5428 5429 -5430 0
5428 -5429 -5430 0
-5428 -5429 5430 0
5428 5429 5430 0
3326 5431 0
37 5431 0
-37 -3326 -5431 0
47 5430 5431 -5432 0
-47 -5430 5431 -5432 0
-47 5430 -5431 -5432 0
47 -5430 -5431 -5432 0
-47 -5430 -5431 5432 0
47 5430 -5431 5432 0
47 -5430 5431 5432 0
-47 5430 5431 5432 0
-42 -5432 0
-46 -5432 0
5427 -5432 0
3454 5433 0
88 5433 0
-3454 -88 -5433 0
3354 5434 0
98 5434 0
-98 -3354 -5434 0
-5433 5434 -5435 0
5433 -5434 -5435 0
-5433 -5434 5435 0
5433 5434 5435 0
3326 5436 0
38 5436 0
-38 -3326 -5436 0
48 5435 5436 -5437 0
-48 -5435 5436 -5437 0
-48 5435 -5436 -5437 0
48 -5435 -5436 -5437 0
-48 -5435 -5436 5437 0
48 5435 -5436 5437 0
48 -5435 5436 5437 0
-48 5435 5436 5437 0
-42 -5437 0
-46 -5437 0
5427 -5437 0
3454 5438 0
89 5438 0
-3454 -89 -5438 0
3354 5439 0
99 5439 0
-99 -3354 -5439 0
-5438 5439 -5440 0
5438 -5439 -5440 0
-5438 -5439 5440 0
5438 5439 5440 0
3326 5441 0
39 5441 0
-39 -3326 -5441 0
49 5440 5441 -5442 0
-49 -5440 5441 -5442 0
-49 5440 -5441 -5442 0
49 -5440 -5441 -5442 0
-49 -5440 -5441 5442 0
49 5440 -5441 5442 0
49 -5440 5441 5442 0
-49 5440 5441 5442 0
-42 -5442 0
-46 -5442 0
5427 -5442 0
3454 5443 0
90 5443 0
-3454 -90 -5443 0
3354 5444 0
100 5444 0
-100 -3354 -5444 0
-5443 5444 -5445 0
5443 -5444 -5445 0
-5443 -5444 5445 0
5443 5444 5445 0
3326 5446 0
40 5446 0
-40 -3326 -5446 0
50 5445 5446 -5447 0
-50 -5445 5446 -5447 0
-50 5445 -5446 -5447 0
50 -5445 -5446 -5447 0
-50 -5445 -5446 5447 0
50 5445 -5446 5447 0
50 -5445 5446 5447 0
-50 5445 5446 5447 0
-42 -5447 0
-46 -5447 0
5427 -5447 0
3456 5448 0
61 5448 0
-61 -3456 -5448 0
3455 5449 0
1 5449 0
-1 -3455 -5449 0
3362 5450 0
101 5450 0
-101 -3362 -5450 0
-5449 5450 -5451 0
5449 -5450 -5451 0
-5449 -5450 5451 0
5449 5450 5451 0
3308 5452 0
11 5452 0
-3308 -11 -5452 0
5448 5451 5452 -5453 0
-5448 -5451 5452 -5453 0
-5448 5451 -5452 -5453 0
5448 -5451 -5452 -5453 0
-5448 -5451 -5452 5453 0
5448 5451 -5452 5453 0
5448 -5451 5452 5453 0
-5448 5451 5452 5453 0
3457 5454 0
111 5454 0
-3457 -111 -5454 0
51 5453 5454 -5455 0
-51 -5453 5454 -5455 0
-51 5453 -5454 -5455 0
51 -5453 -5454 -5455 0
-51 -5453 -5454 5455 0
51 5453 -5454 5455 0
51 -5453 5454 5455 0
-51 5453 5454 5455 0
-52 -5455 0
-56 -5455 0
3337 -5455 0
3456 5456 0
67 5456 0
-67 -3456 -5456 0
3455 5457 0
7 5457 0
-7 -3455 -5457 0
3362 5458 0
107 5458 0
-107 -3362 -5458 0
-5457 5458 -5459 0
5457 -5458 -5459 0
-5457 -5458 5459 0
5457 5458 5459 0
3308 5460 0
17 5460 0
-3308 -17 -5460 0
5456 5459 5460 -5461 0
-5456 -5459 5460 -5461 0
-5456 5459 -5460 -5461 0
5456 -5459 -5460 -5461 0
-5456 -5459 -5460 5461 0
5456 5459 -5460 5461 0
5456 -5459 5460 5461 0
-5456 5459 5460 5461 0
3457 5462 0
117 5462 0
-3457 -117 -5462 0
57 5461 5462 -5463 0
-57 -5461 5462 -5463 0
-57 5461 -5462 -5463 0
57 -5461 -5462 -5463 0
-57 -5461 -5462 5463 0
57 5461 -5462 5463 0
57 -5461 5462 5463 0
-57 5461 5462 5463 0
-52 -5463 0
-56 -5463 0
3337 -5463 0
3456 5464 0
68 5464 0
-68 -3456 -5464 0
3455 5465 0
8 5465 0
-8 -3455 -5465 0
3362 5466 0
108 5466 0
-108 -3362 -5466 0
-5465 5466 -5467 0
5465 -5466 -5467 0
-5465 -5466 5467 0
5465 5466 5467 0
3308 5468 0
18 5468 0
-3308 -18 -5468 0
5464 5467 5468 -5469 0
-5464 -5467 5468 -5469 0
-5464 5467 -5468 -5469 0
5464 -5467 -5468 -5469 0
-5464 -5467 -5468 5469 0
5464 5467 -5468 5469 0
5464 -5467 5468 5469 0
-5464 5467 5468 5469 0
3457 5470 0
118 5470 0
-3457 -118 -5470 0
58 5469 5470 -5471 0
-58 -5469 5470 -5471 0
-58 5469 -5470 -5471 0
58 -5469 -5470 -5471 0
-58 -5469 -5470 5471 0
58 5469 -5470 5471 0
58 -5469 5470 5471 0
-58 5469 5470 5471 0
-52 -5471 0
-56 -5471 0
3337 -5471 0
3456 5472 0
69 5472 0
-69 -3456 -5472 0
3455 5473 0
9 5473 0
-9 -3455 -5473 0
3362 5474 0
109 5474 0
-109 -3362 -5474 0
-5473 5474 -5475 0
5473 -5474 -5475 0
-5473 -5474 5475 0
5473 5474 5475 0
3308 5476 0
19 5476 0
-3308 -19 -5476 0
5472 5475 5476 -5477 0
-5472 -5475 5476 -5477 0
-5472 5475 -5476 -5477 0
5472 -5475 -5476 -5477 0
-5472 -5475 -5476 5477 0
5472 5475 -5476 5477 0
5472 -5475 5476 5477 0
-5472 5475 5476 5477 0
3457 5478 0
119 5478 0
-3457 -119 -5478 0
59 5477 5478 -5479 0
-59 -5477 5478 -5479 0
-59 5477 -5478 -5479 0
59 -5477 -5478 -5479 0
-59 -5477 -5478 5479 0
59 5477 -5478 5479 0
59 -5477 5478 5479 0
-59 5477 5478 5479 0
-52 -5479 0
-56 -5479 0
3337 -5479 0
3456 5480 0
70 5480 0
-70 -3456 -5480 0
3455 5481 0
10 5481 0
-10 -3455 -5481 0
3362 5482 0
110 5482 0
-110 -3362 -5482 0
-5481 5482 -5483 0
5481 -5482 -5483 0
-5481 -5482 5483 0
5481 5482 5483 0
3308 5484 0
20 5484 0
-3308 -20 -5484 0
5480 5483 5484 -5485 0
-5480 -5483 5484 -5485 0
-5480 5483 -5484 -5485 0
5480 -5483 -5484 -5485 0
-5480 -5483 -5484 5485 0
5480 5483 -5484 5485 0
5480 -5483 5484 5485 0
-5480 5483 5484 5485 0
3457 5486 0
120 5486 0
-3457 -120 -5486 0
60 5485 5486 -5487 0
-60 -5485 5486 -5487 0
-60 5485 -5486 -5487 0
60 -5485 -5486 -5487 0
-60 -5485 -5486 5487 0
60 5485 -5486 5487 0
60 -5485 5486 5487 0
-60 5485 5486 5487 0
-52 -5487 0
-56 -5487 0
3337 -5487 0
3462 5488 0
121 5488 0
-3462 -121 -5488 0
3316 5489 0
21 5489 0
-3316 -21 -5489 0
3459 5490 0
1 5490 0
-3459 -1 -5490 0
3360 5491 0
101 5491 0
-3360 -101 -5491 0
3461 5492 0
111 5492 0
-111 -3461 -5492 0
3335 5493 0
51 5493 0
-51 -3335 -5493 0
5491 5492 5493 -5494 0
-5491 -5492 5493 -5494 0
-5491 5492 -5493 -5494 0
5491 -5492 -5493 -5494 0
-5491 -5492 -5493 5494 0
5491 5492 -5493 5494 0
5491 -5492 5493 5494 0
-5491 5492 5493 5494 0
3311 5495 0
11 5495 0
-11 -3311 -5495 0
5490 5494 5495 -5496 0
-5490 -5494 5495 -5496 0
-5490 5494 -5495 -5496 0
5490 -5494 -5495 -5496 0
-5490 -5494 -5495 5496 0
5490 5494 -5495 5496 0
5490 -5494 5495 5496 0
-5490 5494 5495 5496 0
3460 5497 0
71 5497 0
-71 -3460 -5497 0
5489 5496 5497 -5498 0
-5489 -5496 5497 -5498 0
-5489 5496 -5497 -5498 0
5489 -5496 -5497 -5498 0
-5489 -5496 -5497 5498 0
5489 5496 -5497 5498 0
5489 -5496 5497 5498 0
-5489 5496 5497 5498 0
61 5488 5498 -5499 0
-61 -5488 5498 -5499 0
-61 5488 -5498 -5499 0
61 -5488 -5498 -5499 0
-61 -5488 -5498 5499 0
61 5488 -5498 5499 0
61 -5488 5498 5499 0
-61 5488 5498 5499 0
-62 -5499 0
-66 -5499 0
3341 -5499 0
3462 5500 0
127 5500 0
-3462 -127 -5500 0
3316 5501 0
27 5501 0
-3316 -27 -5501 0
3459 5502 0
7 5502 0
-3459 -7 -5502 0
3360 5503 0
107 5503 0
-3360 -107 -5503 0
3461 5504 0
117 5504 0
-117 -3461 -5504 0
3335 5505 0
57 5505 0
-57 -3335 -5505 0
5503 5504 5505 -5506 0
-5503 -5504 5505 -5506 0
-5503 5504 -5505 -5506 0
5503 -5504 -5505 -5506 0
-5503 -5504 -5505 5506 0
5503 5504 -5505 5506 0
5503 -5504 5505 5506 0
-5503 5504 5505 5506 0
3311 5507 0
17 5507 0
-17 -3311 -5507 0
5502 5506 5507 -5508 0
-5502 -5506 5507 -5508 0
-5502 5506 -5507 -5508 0
5502 -5506 -5507 -5508 0
-5502 -5506 -5507 5508 0
5502 5506 -5507 5508 0
5502 -5506 5507 5508 0
-5502 5506 5507 5508 0
3460 5509 0
77 5509 0
-77 -3460 -5509 0
5501 5508 5509 -5510 0
-5501 -5508 5509 -5510 0
-5501 5508 -5509 -5510 0
5501 -5508 -5509 -5510 0
-5501 -5508 -5509 5510 0
5501 5508 -5509 5510 0
5501 -5508 5509 5510 0
-5501 5508 5509 5510 0
67 5500 5510 -5511 0
-67 -5500 5510 -5511 0
-67 5500 -5510 -5511 0
67 -5500 -5510 -5511 0
-67 -5500 -5510 5511 0
67 5500 -5510 5511 0
67 -5500 5510 5511 0
-67 5500 5510 5511 0
-62 -5511 0
-66 -5511 0
3341 -5511 0
3462 5512 0
128 5512 0
-3462 -128 -5512 0
3316 5513 0
28 5513 0
-3316 -28 -5513 0
3459 5514 0
8 5514 0
-3459 -8 -5514 0
3360 5515 0
108 5515 0
-3360 -108 -5515 0
3461 5516 0
118 5516 0
-118 -3461 -5516 0
3335 5517 0
58 5517 0
-58 -3335 -5517 0
5515 5516 5517 -5518 0
-5515 -5516 5517 -5518 0
-5515 5516 -5517 -5518 0
5515 -5516 -5517 -5518 0
-5515 -5516 -5517 5518 0
5515 5516 -5517 5518 0
5515 -5516 5517 5518 0
-5515 5516 5517 5518 0
3311 5519 0
18 5519 0
-18 -3311 -5519 0
5514 5518 5519 -5520 0
-5514 -5518 5519 -5520 0
-5514 5518 -5519 -5520 0
5514 -5518 -5519 -5520 0
-5514 -5518 -5519 5520 0
5514 5518 -5519 5520 0
5514 -5518 5519 5520 0
-5514 5518 5519 5520 0
3460 5521 0
78 5521 0
-78 -3460 -5521 0
5513 5520 5521 -5522 0
-5513 -5520 5521 -5522 0
-5513 5520 -5521 -5522 0
5513 -5520 -5521 -5522 0
-5513 -5520 -5521 5522 0
5513 5520 -5521 5522 0
5513 -5520 5521 5522 0
-5513 5520 5521 5522 0
68 5512 5522 -5523 0
-68 -5512 5522 -5523 0
-68 5512 -5522 -5523 0
68 -5512 -5522 -5523 0
-68 -5512 -5522 5523 0
68 5512 -5522 5523 0
68 -5512 5522 5523 0
-68 5512 5522 5523 0
-62 -5523 0
-66 -5523 0
3341 -5523 0
3462 5524 0
129 5524 0
-3462 -129 -5524 0
3316 5525 0
29 5525 0
-3316 -29 -5525 0
3459 5526 0
9 5526 0
-3459 -9 -5526 0
3360 5527 0
109 5527 0
-3360 -109 -5527 0
3461 5528 0
119 5528 0
-119 -3461 -5528 0
3335 5529 0
59 5529 0
-59 -3335 -5529 0
5527 5528 5529 -5530 0
-5527 -5528 5529 -5530 0
-5527 5528 -5529 -5530 0
5527 -5528 -5529 -5530 0
-5527 -5528 -5529 5530 0
5527 5528 -5529 5530 0
5527 -5528 5529 5530 0
-5527 5528 5529 5530 0
3311 5531 0
19 5531 0
-19 -3311 -5531 0
5526 5530 5531 -5532 0
-5526 -5530 5531 -5532 0
-5526 5530 -5531 -5532 0
5526 -5530 -5531 -5532 0
-5526 -5530 -5531 5532 0
5526 5530 -5531 5532 0
5526 -5530 5531 5532 0
-5526 5530 5531 5532 0
3460 5533 0
79 5533 0
-79 -3460 -5533 0
5525 5532 5533 -5534 0
-5525 -5532 5533 -5534 0
-5525 5532 -5533 -5534 0
5525 -5532 -5533 -5534 0
-5525 -5532 -5533 5534 0
5525 5532 -5533 5534 0
5525 -5532 5533 5534 0
-5525 5532 5533 5534 0
69 5524 5534 -5535 0
-69 -5524 5534 -5535 0
-69 5524 -5534 -5535 0
69 -5524 -5534 -5535 0
-69 -5524 -5534 5535 0
69 5524 -5534 5535 0
69 -5524 5534 5535 0
-69 5524 5534 5535 0
-62 -5535 0
-66 -5535 0
3341 -5535 0
3462 5536 0
130 5536 0
-3462 -130 -5536 0
3316 5537 0
30 5537 0
-3316 -30 -5537 0
3459 5538 0
10 5538 0
-3459 -10 -5538 0
3360 5539 0
110 5539 0
-3360 -110 -5539 0
3461 5540 0
120 5540 0
-120 -3461 -5540 0
3335 5541 0
60 5541 0
-60 -3335 -5541 0
5539 5540 5541 -5542 0
-5539 -5540 5541 -5542 0
-5539 5540 -5541 -5542 0
5539 -5540 -5541 -5542 0
-5539 -5540 -5541 5542 0
5539 5540 -5541 5542 0
5539 -5540 5541 5542 0
-5539 5540 5541 5542 0
3311 5543 0
20 5543 0
-20 -3311 -5543 0
5538 5542 5543 -5544 0
-5538 -5542 5543 -5544 0
-5538 5542 -5543 -5544 0
5538 -5542 -5543 -5544 0
-5538 -5542 -5543 5544 0
5538 5542 -5543 5544 0
5538 -5542 5543 5544 0
-5538 5542 5543 5544 0
3460 5545 0
80 5545 0
-80 -3460 -5545 0
5537 5544 5545 -5546 0
-5537 -5544 5545 -5546 0
-5537 5544 -5545 -5546 0
5537 -5544 -5545 -5546 0
-5537 -5544 -5545 5546 0
5537 5544 -5545 5546 0
5537 -5544 5545 5546 0
-5537 5544 5545 5546 0
70 5536 5546 -5547 0
-70 -5536 5546 -5547 0
-70 5536 -5546 -5547 0
70 -5536 -5546 -5547 0
-70 -5536 -5546 5547 0
70 5536 -5546 5547 0
70 -5536 5546 5547 0
-70 5536 5546 5547 0
-62 -5547 0
-66 -5547 0
3341 -5547 0
3468 5548 0
131 5548 0
-3468 -131 -5548 0
3324 5549 0
31 5549 0
-3324 -31 -5549 0
3309 5550 0
11 5550 0
-3309 -11 -5550 0
3466 5551 0
111 5551 0
-3466 -111 -5551 0
3467 5552 0
121 5552 0
-121 -3467 -5552 0
3464 5553 0
61 5553 0
-61 -3464 -5553 0
5551 5552 5553 -5554 0
-5551 -5552 5553 -5554 0
-5551 5552 -5553 -5554 0
5551 -5552 -5553 -5554 0
-5551 -5552 -5553 5554 0
5551 5552 -5553 5554 0
5551 -5552 5553 5554 0
-5551 5552 5553 5554 0
3319 5555 0
21 5555 0
-21 -3319 -5555 0
5550 5554 5555 -5556 0
-5550 -5554 5555 -5556 0
-5550 5554 -5555 -5556 0
5550 -5554 -5555 -5556 0
-5550 -5554 -5555 5556 0
5550 5554 -5555 5556 0
5550 -5554 5555 5556 0
-5550 5554 5555 5556 0
3465 5557 0
81 5557 0
-81 -3465 -5557 0
5549 5556 5557 -5558 0
-5549 -5556 5557 -5558 0
-5549 5556 -5557 -5558 0
5549 -5556 -5557 -5558 0
-5549 -5556 -5557 5558 0
5549 5556 -5557 5558 0
5549 -5556 5557 5558 0
-5549 5556 5557 5558 0
71 5548 5558 -5559 0
-71 -5548 5558 -5559 0
-71 5548 -5558 -5559 0
71 -5548 -5558 -5559 0
-71 -5548 -5558 5559 0
71 5548 -5558 5559 0
71 -5548 5558 5559 0
-71 5548 5558 5559 0
-72 -5559 0
-76 -5559 0
3345 -5559 0
3468 5560 0
137 5560 0
-3468 -137 -5560 0
3324 5561 0
37 5561 0
-3324 -37 -5561 0
3309 5562 0
17 5562 0
-3309 -17 -5562 0
3466 5563 0
117 5563 0
-3466 -117 -5563 0
3467 5564 0
127 5564 0
-127 -3467 -5564 0
3464 5565 0
67 5565 0
-67 -3464 -5565 0
5563 5564 5565 -5566 0
-5563 -5564 5565 -5566 0
-5563 5564 -5565 -5566 0
5563 -5564 -5565 -5566 0
-5563 -5564 -5565 5566 0
5563 5564 -5565 5566 0
5563 -5564 5565 5566 0
-5563 5564 5565 5566 0
3319 5567 0
27 5567 0
-27 -3319 -5567 0
5562 5566 5567 -5568 0
-5562 -5566 5567 -5568 0
-5562 5566 -5567 -5568 0
5562 -5566 -5567 -5568 0
-5562 -5566 -5567 5568 0
5562 5566 -5567 5568 0
5562 -5566 5567 5568 0
-5562 5566 5567 5568 0
3465 5569 0
87 5569 0
-87 -3465 -5569 0
5561 5568 5569 -5570 0
-5561 -5568 5569 -5570 0
-5561 5568 -5569 -5570 0
5561 -5568 -5569 -5570 0
-5561 -5568 -5569 5570 0
5561 5568 -5569 5570 0
5561 -5568 5569 5570 0
-5561 5568 5569 5570 0
77 5560 5570 -5571 0
-77 -5560 5570 -5571 0
-77 5560 -5570 -5571 0
77 -5560 -5570 -5571 0
-77 -5560 -5570 5571 0
77 5560 -5570 5571 0
77 -5560 5570 5571 0
-77 5560 5570 5571 0
-72 -5571 0
-76 -5571 0
3345 -5571 0
3468 5572 0
138 5572 0
-3468 -138 -5572 0
3324 5573 0
38 5573 0
-3324 -38 -5573 0
3309 5574 0
18 5574 0
-3309 -18 -5574 0
3466 5575 0
118 5575 0
-3466 -118 -5575 0
3467 5576 0
128 5576 0
-128 -3467 -5576 0
3464 5577 0
68 5577 0
-68 -3464 -5577 0
5575 5576 5577 -5578 0
-5575 -5576 5577 -5578 0
-5575 5576 -5577 -5578 0
5575 -5576 -5577 -5578 0
-5575 -5576 -5577 5578 0
5575 5576 -5577 5578 0
5575 -5576 5577 5578 0
-5575 5576 5577 5578 0
3319 5579 0
28 5579 0
-28 -3319 -5579 0
5574 5578 5579 -5580 0
-5574 -5578 5579 -5580 0
-5574 5578 -5579 -5580 0
5574 -5578 -5579 -5580 0
-5574 -5578 -5579 5580 0
5574 5578 -5579 5580 0
5574 -5578 5579 5580 0
-5574 5578 5579 5580 0
3465 5581 0
88 5581 0
-88 -3465 -5581 0
5573 5580 5581 -5582 0
-5573 -5580 5581 -5582 0
-5573 5580 -5581 -5582 0
5573 -5580 -5581 -5582 0
-5573 -5580 -5581 5582 0
5573 5580 -5581 5582 0
5573 -5580 5581 5582 0
-5573 5580 5581 5582 0
78 5572 5582 -5583 0
-78 -5572 5582 -5583 0
-78 5572 -5582 -5583 0
78 -5572 -5582 -5583 0
-78 -5572 -5582 5583 0
78 5572 -5582 5583 0
78 -5572 5582 5583 0
-78 5572 5582 5583 0
-72 -5583 0
-76 -5583 0
3345 -5583 0
3468 5584 0
139 5584 0
-3468 -139 -5584 0
3324 5585 0
39 5585 0
-3324 -39 -5585 0
3309 5586 0
19 5586 0
-3309 -19 -5586 0
3466 5587 0
119 5587 0
-3466 -119 -5587 0
3467 5588 0
129 5588 0
-129 -3467 -5588 0
3464 5589 0
69 5589 0
-69 -3464 -5589 0
5587 5588 5589 -5590 0
-5587 -5588 5589 -5590 0
-5587 5588 -5589 -5590 0
5587 -5588 -5589 -5590 0
-5587 -5588 -5589 5590 0
5587 5588 -5589 5590 0
5587 -5588 5589 5590 0
-5587 5588 5589 5590 0
3319 5591 0
29 5591 0
-29 -3319 -5591 0
5586 5590 5591 -5592 0
-5586 -5590 5591 -5592 0
-5586 5590 -5591 -5592 0
5586 -5590 -5591 -5592 0
-5586 -5590 -5591 5592 0
5586 5590 -5591 5592 0
5586 -5590 5591 5592 0
-5586 5590 5591 5592 0
3465 5593 0
89 5593 0
-89 -3465 -5593 0
5585 5592 5593 -5594 0
-5585 -5592 5593 -5594 0
-5585 5592 -5593 -5594 0
5585 -5592 -5593 -5594 0
-5585 -5592 -5593 5594 0
5585 5592 -5593 5594 0
5585 -5592 5593 5594 0
-5585 5592 5593 5594 0
79 5584 5594 -5595 0
-79 -5584 5594 -5595 0
-79 5584 -5594 -5595 0
79 -5584 -5594 -5595 0
-79 -5584 -5594 5595 0
79 5584 -5594 5595 0
79 -5584 5594 5595 0
-79 5584 5594 5595 0
-72 -5595 0
-76 -5595 0
3345 -5595 0
3468 5596 0
140 5596 0
-3468 -140 -5596 0
3324 5597 0
40 5597 0
-3324 -40 -5597 0
3309 5598 0
20 5598 0
-3309 -20 -5598 0
3466 5599 0
120 5599 0
-3466 -120 -5599 0
3467 5600 0
130 5600 0
-130 -3467 -5600 0
3464 5601 0
70 5601 0
-70 -3464 -5601 0
5599 5600 5601 -5602 0
-5599 -5600 5601 -5602 0
-5599 5600 -5601 -5602 0
5599 -5600 -5601 -5602 0
-5599 -5600 -5601 5602 0
5599 5600 -5601 5602 0
5599 -5600 5601 5602 0
-5599 5600 5601 5602 0
3319 5603 0
30 5603 0
-30 -3319 -5603 0
5598 5602 5603 -5604 0
-5598 -5602 5603 -5604 0
-5598 5602 -5603 -5604 0
5598 -5602 -5603 -5604 0
-5598 -5602 -5603 5604 0
5598 5602 -5603 5604 0
5598 -5602 5603 5604 0
-5598 5602 5603 5604 0
3465 5605 0
90 5605 0
-90 -3465 -5605 0
5597 5604 5605 -5606 0
-5597 -5604 5605 -5606 0
-5597 5604 -5605 -5606 0
5597 -5604 -5605 -5606 0
-5597 -5604 -5605 5606 0
5597 5604 -5605 5606 0
5597 -5604 5605 5606 0
-5597 5604 5605 5606 0
80 5596 5606 -5607 0
-80 -5596 5606 -5607 0
-80 5596 -5606 -5607 0
80 -5596 -5606 -5607 0
-80 -5596 -5606 5607 0
80 5596 -5606 5607 0
80 -5596 5606 5607 0
-80 5596 5606 5607 0
-72 -5607 0
-76 -5607 0
3345 -5607 0
3380 5608 0
141 5608 0
-3380 -141 -5608 0
3470 5609 0
41 5609 0
-3470 -41 -5609 0
3317 5610 0
21 5610 0
-3317 -21 -5610 0
3472 5611 0
121 5611 0
-3472 -121 -5611 0
3473 5612 0
131 5612 0
-131 -3473 -5612 0
3471 5613 0
71 5613 0
-71 -3471 -5613 0
5611 5612 5613 -5614 0
-5611 -5612 5613 -5614 0
-5611 5612 -5613 -5614 0
5611 -5612 -5613 -5614 0
-5611 -5612 -5613 5614 0
5611 5612 -5613 5614 0
5611 -5612 5613 5614 0
-5611 5612 5613 5614 0
3327 5615 0
31 5615 0
-31 -3327 -5615 0
5610 5614 5615 -5616 0
-5610 -5614 5615 -5616 0
-5610 5614 -5615 -5616 0
5610 -5614 -5615 -5616 0
-5610 -5614 -5615 5616 0
5610 5614 -5615 5616 0
5610 -5614 5615 5616 0
-5610 5614 5615 5616 0
3356 5617 0
91 5617 0
-91 -3356 -5617 0
5609 5616 5617 -5618 0
-5609 -5616 5617 -5618 0
-5609 5616 -5617 -5618 0
5609 -5616 -5617 -5618 0
-5609 -5616 -5617 5618 0
5609 5616 -5617 5618 0
5609 -5616 5617 5618 0
-5609 5616 5617 5618 0
81 5608 5618 -5619 0
-81 -5608 5618 -5619 0
-81 5608 -5618 -5619 0
81 -5608 -5618 -5619 0
-81 -5608 -5618 5619 0
81 5608 -5618 5619 0
81 -5608 5618 5619 0
-81 5608 5618 5619 0
-82 -5619 0
-86 -5619 0
3349 -5619 0
3380 5620 0
147 5620 0
-3380 -147 -5620 0
3470 5621 0
47 5621 0
-3470 -47 -5621 0
3317 5622 0
27 5622 0
-3317 -27 -5622 0
3472 5623 0
127 5623 0
-3472 -127 -5623 0
3473 5624 0
137 5624 0
-137 -3473 -5624 0
3471 5625 0
77 5625 0
-77 -3471 -5625 0
5623 5624 5625 -5626 0
-5623 -5624 5625 -5626 0
-5623 5624 -5625 -5626 0
5623 -5624 -5625 -5626 0
-5623 -5624 -5625 5626 0
5623 5624 -5625 5626 0
5623 -5624 5625 5626 0
-5623 5624 5625 5626 0
3327 5627 0
37 5627 0
-37 -3327 -5627 0
5622 5626 5627 -5628 0
-5622 -5626 5627 -5628 0
-5622 5626 -5627 -5628 0
5622 -5626 -5627 -5628 0
-5622 -5626 -5627 5628 0
5622 5626 -5627 5628 0
5622 -5626 5627 5628 0
-5622 5626 5627 5628 0
3356 5629 0
97 5629 0
-97 -3356 -5629 0
5621 5628 5629 -5630 0
-5621 -5628 5629 -5630 0
-5621 5628 -5629 -5630 0
5621 -5628 -5629 -5630 0
-5621 -5628 -5629 5630 0
5621 5628 -5629 5630 0
5621 -5628 5629 5630 0
-5621 5628 5629 5630 0
87 5620 5630 -5631 0
-87 -5620 5630 -5631 0
-87 5620 -5630 -5631 0
87 -5620 -5630 -5631 0
-87 -5620 -5630 5631 0
87 5620 -5630 5631 0
87 -5620 5630 5631 0
-87 5620 5630 5631 0
-82 -5631 0
-86 -5631 0
3349 -5631 0
3380 5632 0
148 5632 0
-3380 -148 -5632 0
3470 5633 0
48 5633 0
-3470 -48 -5633 0
3317 5634 0
28 5634 0
-3317 -28 -5634 0
3472 5635 0
128 5635 0
-3472 -128 -5635 0
3473 5636 0
138 5636 0
-138 -3473 -5636 0
3471 5637 0
78 5637 0
-78 -3471 -5637 0
5635 5636 5637 -5638 0
-5635 -5636 5637 -5638 0
-5635 5636 -5637 -5638 0
5635 -5636 -5637 -5638 0
-5635 -5636 -5637 5638 0
5635 5636 -5637 5638 0
5635 -5636 5637 5638 0
-5635 5636 5637 5638 0
3327 5639 0
38 5639 0
-38 -3327 -5639 0
5634 5638 5639 -5640 0
-5634 -5638 5639 -5640 0
-5634 5638 -5639 -5640 0
5634 -5638 -5639 -5640 0
-5634 -5638 -5639 5640 0
5634 5638 -5639 5640 0
5634 -5638 5639 5640 0
-5634 5638 5639 5640 0
3356 5641 0
98 5641 0
-98 -3356 -5641 0
5633 5640 5641 -5642 0
-5633 -5640 5641 -5642 0
-5633 5640 -5641 -5642 0
5633 -5640 -5641 -5642 0
-5633 -5640 -5641 5642 0
5633 5640 -5641 5642 0
5633 -5640 5641 5642 0
-5633 5640 5641 5642 0
88 5632 5642 -5643 0
-88 -5632 5642 -5643 0
-88 5632 -5642 -5643 0
88 -5632 -5642 -5643 0
-88 -5632 -5642 5643 0
88 5632 -5642 5643 0
88 -5632 5642 5643 0
-88 5632 5642 5643 0
-82 -5643 0
-86 -5643 0
3349 -5643 0
3380 5644 0
149 5644 0
-3380 -149 -5644 0
3470 5645 0
49 5645 0
-3470 -49 -5645 0
3317 5646 0
29 5646 0
-3317 -29 -5646 0
3472 5647 0
129 5647 0
-3472 -129 -5647 0
3473 5648 0
139 5648 0
-139 -3473 -5648 0
3471 5649 0
79 5649 0
-79 -3471 -5649 0
5647 5648 5649 -5650 0
-5647 -5648 5649 -5650 0
-5647 5648 -5649 -5650 0
5647 -5648 -5649 -5650 0
-5647 -5648 -5649 5650 0
5647 5648 -5649 5650 0
5647 -5648 5649 5650 0
-5647 5648 5649 5650 0
3327 5651 0
39 5651 0
-39 -3327 -5651 0
5646 5650 5651 -5652 0
-5646 -5650 5651 -5652 0
-5646 5650 -5651 -5652 0
5646 -5650 -5651 -5652 0
-5646 -5650 -5651 5652 0
5646 5650 -5651 5652 0
5646 -5650 5651 5652 0
-5646 5650 5651 5652 0
3356 5653 0
99 5653 0
-99 -3356 -5653 0
5645 5652 5653 -5654 0
-5645 -5652 5653 -5654 0
-5645 5652 -5653 -5654 0
5645 -5652 -5653 -5654 0
-5645 -5652 -5653 5654 0
5645 5652 -5653 5654 0
5645 -5652 5653 5654 0
-5645 5652 5653 5654 0
89 5644 5654 -5655 0
-89 -5644 5654 -5655 0
-89 5644 -5654 -5655 0
89 -5644 -5654 -5655 0
-89 -5644 -5654 5655 0
89 5644 -5654 5655 0
89 -5644 5654 5655 0
-89 5644 5654 5655 0
-82 -5655 0
-86 -5655 0
3349 -5655 0
3380 5656 0
150 5656 0
-3380 -150 -5656 0
3470 5657 0
50 5657 0
-3470 -50 -5657 0
3317 5658 0
30 5658 0
-3317 -30 -5658 0
3472 5659 0
130 5659 0
-3472 -130 -5659 0
3473 5660 0
140 5660 0
-140 -3473 -5660 0
3471 5661 0
80 5661 0
-80 -3471 -5661 0
5659 5660 5661 -5662 0
-5659 -5660 5661 -5662 0
-5659 5660 -5661 -5662 0
5659 -5660 -5661 -5662 0
-5659 -5660 -5661 5662 0
5659 5660 -5661 5662 0
5659 -5660 5661 5662 0
-5659 5660 5661 5662 0
3327 5663 0
40 5663 0
-40 -3327 -5663 0
5658 5662 5663 -5664 0
-5658 -5662 5663 -5664 0
-5658 5662 -5663 -5664 0
5658 -5662 -5663 -5664 0
-5658 -5662 -5663 5664 0
5658 5662 -5663 5664 0
5658 -5662 5663 5664 0
-5658 5662 5663 5664 0
3356 5665 0
100 5665 0
-100 -3356 -5665 0
5657 5664 5665 -5666 0
-5657 -5664 5665 -5666 0
-5657 5664 -5665 -5666 0
5657 -5664 -5665 -5666 0
-5657 -5664 -5665 5666 0
5657 5664 -5665 5666 0
5657 -5664 5665 5666 0
-5657 5664 5665 5666 0
90 5656 5666 -5667 0
-90 -5656 5666 -5667 0
-90 5656 -5666 -5667 0
90 -5656 -5666 -5667 0
-90 -5656 -5666 5667 0
90 5656 -5666 5667 0
90 -5656 5666 5667 0
-90 5656 5666 5667 0
-82 -5667 0
-86 -5667 0
3349 -5667 0
3325 5668 0
31 5668 0
-3325 -31 -5668 0
3477 5669 0
131 5669 0
-3477 -131 -5669 0
3382 5670 0
141 5670 0
-141 -3382 -5670 0
-5669 5670 -5671 0
5669 -5670 -5671 0
-5669 -5670 5671 0
5669 5670 5671 0
3476 5672 0
81 5672 0
-81 -3476 -5672 0
5668 5671 5672 -5673 0
-5668 -5671 5672 -5673 0
-5668 5671 -5672 -5673 0
5668 -5671 -5672 -5673 0
-5668 -5671 -5672 5673 0
5668 5671 -5672 5673 0
5668 -5671 5672 5673 0
-5668 5671 5672 5673 0
3475 5674 0
41 5674 0
-41 -3475 -5674 0
91 5673 5674 -5675 0
-91 -5673 5674 -5675 0
-91 5673 -5674 -5675 0
91 -5673 -5674 -5675 0
-91 -5673 -5674 5675 0
91 5673 -5674 5675 0
91 -5673 5674 5675 0
-91 5673 5674 5675 0
-92 -5675 0
-96 -5675 0
3357 -5675 0
3325 5676 0
37 5676 0
-3325 -37 -5676 0
3477 5677 0
137 5677 0
-3477 -137 -5677 0
3382 5678 0
147 5678 0
-147 -3382 -5678 0
-5677 5678 -5679 0
5677 -5678 -5679 0
-5677 -5678 5679 0
5677 5678 5679 0
3476 5680 0
87 5680 0
-87 -3476 -5680 0
5676 5679 5680 -5681 0
-5676 -5679 5680 -5681 0
-5676 5679 -5680 -5681 0
5676 -5679 -5680 -5681 0
-5676 -5679 -5680 5681 0
5676 5679 -5680 5681 0
5676 -5679 5680 5681 0
-5676 5679 5680 5681 0
3475 5682 0
47 5682 0
-47 -3475 -5682 0
97 5681 5682 -5683 0
-97 -5681 5682 -5683 0
-97 5681 -5682 -5683 0
97 -5681 -5682 -5683 0
-97 -5681 -5682 5683 0
97 5681 -5682 5683 0
97 -5681 5682 5683 0
-97 5681 5682 5683 0
-92 -5683 0
-96 -5683 0
3357 -5683 0
3325 5684 0
38 5684 0
-3325 -38 -5684 0
3477 5685 0
138 5685 0
-3477 -138 -5685 0
3382 5686 0
148 5686 0
-148 -3382 -5686 0
-5685 5686 -5687 0
5685 -5686 -5687 0
-5685 -5686 5687 0
5685 5686 5687 0
3476 5688 0
88 5688 0
-88 -3476 -5688 0
5684 5687 5688 -5689 0
-5684 -5687 5688 -5689 0
-5684 5687 -5688 -5689 0
5684 -5687 -5688 -5689 0
-5684 -5687 -5688 5689 0
5684 5687 -5688 5689 0
5684 -5687 5688 5689 0
-5684 5687 5688 5689 0
3475 5690 0
48 5690 0
-48 -3475 -5690 0
98 5689 5690 -5691 0
-98 -5689 5690 -5691 0
-98 5689 -5690 -5691 0
98 -5689 -5690 -5691 0
-98 -5689 -5690 5691 0
98 5689 -5690 5691 0
98 -5689 5690 5691 0
-98 5689 5690 5691 0
-92 -5691 0
-96 -5691 0
3357 -5691 0
3325 5692 0
39 5692 0
-3325 -39 -5692 0
3477 5693 0
139 5693 0
-3477 -139 -5693 0
3382 5694 0
149 5694 0
-149 -3382 -5694 0
-5693 5694 -5695 0
5693 -5694 -5695 0
-5693 -5694 5695 0
5693 5694 5695 0
3476 5696 0
89 5696 0
-89 -3476 -5696 0
5692 5695 5696 -5697 0
-5692 -5695 5696 -5697 0
-5692 5695 -5696 -5697 0
5692 -5695 -5696 -5697 0
-5692 -5695 -5696 5697 0
5692 5695 -5696 5697 0
5692 -5695 5696 5697 0
-5692 5695 5696 5697 0
3475 5698 0
49 5698 0
-49 -3475 -5698 0
99 5697 5698 -5699 0
-99 -5697 5698 -5699 0
-99 5697 -5698 -5699 0
99 -5697 -5698 -5699 0
-99 -5697 -5698 5699 0
99 5697 -5698 5699 0
99 -5697 5698 5699 0
-99 5697 5698 5699 0
-92 -5699 0
-96 -5699 0
3357 -5699 0
3325 5700 0
40 5700 0
-3325 -40 -5700 0
3477 5701 0
140 5701 0
-3477 -140 -5701 0
3382 5702 0
150 5702 0
-150 -3382 -5702 0
-5701 5702 -5703 0
5701 -5702 -5703 0
-5701 -5702 5703 0
5701 5702 5703 0
3476 5704 0
90 5704 0
-90 -3476 -5704 0
5700 5703 5704 -5705 0
-5700 -5703 5704 -5705 0
-5700 5703 -5704 -5705 0
5700 -5703 -5704 -5705 0
-5700 -5703 -5704 5705 0
5700 5703 -5704 5705 0
5700 -5703 5704 5705 0
-5700 5703 5704 5705 0
3475 5706 0
50 5706 0
-50 -3475 -5706 0
100 5705 5706 -5707 0
-100 -5705 5706 -5707 0
-100 5705 -5706 -5707 0
100 -5705 -5706 -5707 0
-100 -5705 -5706 5707 0
100 5705 -5706 5707 0
100 -5705 5706 5707 0
-100 5705 5706 5707 0
-92 -5707 0
-96 -5707 0
3357 -5707 0
3480 5708 0
111 5708 0
-111 -3480 -5708 0
3336 5709 0
51 5709 0
-51 -3336 -5709 0
3390 5710 0
151 5710 0
-151 -3390 -5710 0
-5709 5710 -5711 0
5709 -5710 -5711 0
-5709 -5710 5711 0
5709 5710 5711 0
3479 5712 0
61 5712 0
-3479 -61 -5712 0
5708 5711 5712 -5713 0
-5708 -5711 5712 -5713 0
-5708 5711 -5712 -5713 0
5708 -5711 -5712 -5713 0
-5708 -5711 -5712 5713 0
5708 5711 -5712 5713 0
5708 -5711 5712 5713 0
-5708 5711 5712 5713 0
3481 5714 0
161 5714 0
-3481 -161 -5714 0
101 5713 5714 -5715 0
-101 -5713 5714 -5715 0
-101 5713 -5714 -5715 0
101 -5713 -5714 -5715 0
-101 -5713 -5714 5715 0
101 5713 -5714 5715 0
101 -5713 5714 5715 0
-101 5713 5714 5715 0
-102 -5715 0
-106 -5715 0
3365 -5715 0
3480 5716 0
117 5716 0
-117 -3480 -5716 0
3336 5717 0
57 5717 0
-57 -3336 -5717 0
3390 5718 0
157 5718 0
-157 -3390 -5718 0
-5717 5718 -5719 0
5717 -5718 -5719 0
-5717 -5718 5719 0
5717 5718 5719 0
3479 5720 0
67 5720 0
-3479 -67 -5720 0
5716 5719 5720 -5721 0
-5716 -5719 5720 -5721 0
-5716 5719 -5720 -5721 0
5716 -5719 -5720 -5721 0
-5716 -5719 -5720 5721 0
5716 5719 -5720 5721 0
5716 -5719 5720 5721 0
-5716 5719 5720 5721 0
3481 5722 0
167 5722 0
-3481 -167 -5722 0
107 5721 5722 -5723 0
-107 -5721 5722 -5723 0
-107 5721 -5722 -5723 0
107 -5721 -5722 -5723 0
-107 -5721 -5722 5723 0
107 5721 -5722 5723 0
107 -5721 5722 5723 0
-107 5721 5722 5723 0
-102 -5723 0
-106 -5723 0
3365 -5723 0
3480 5724 0
118 5724 0
-118 -3480 -5724 0
3336 5725 0
58 5725 0
-58 -3336 -5725 0
3390 5726 0
158 5726 0
-158 -3390 -5726 0
-5725 5726 -5727 0
5725 -5726 -5727 0
-5725 -5726 5727 0
5725 5726 5727 0
3479 5728 0
68 5728 0
-3479 -68 -5728 0
5724 5727 5728 -5729 0
-5724 -5727 5728 -5729 0
-5724 5727 -5728 -5729 0
5724 -5727 -5728 -5729 0
-5724 -5727 -5728 5729 0
5724 5727 -5728 5729 0
5724 -5727 5728 5729 0
-5724 5727 5728 5729 0
3481 5730 0
168 5730 0
-3481 -168 -5730 0
108 5729 5730 -5731 0
-108 -5729 5730 -5731 0
-108 5729 -5730 -5731 0
108 -5729 -5730 -5731 0
-108 -5729 -5730 5731 0
108 5729 -5730 5731 0
108 -5729 5730 5731 0
-108 5729 5730 5731 0
-102 -5731 0
-106 -5731 0
3365 -5731 0
3480 5732 0
119 5732 0
-119 -3480 -5732 0
3336 5733 0
59 5733 0
-59 -3336 -5733 0
3390 5734 0
159 5734 0
-159 -3390 -5734 0
-5733 5734 -5735 0
5733 -5734 -5735 0
-5733 -5734 5735 0
5733 5734 5735 0
3479 5736 0
69 5736 0
-3479 -69 -5736 0
5732 5735 5736 -5737 0
-5732 -5735 5736 -5737 0
-5732 5735 -5736 -5737 0
5732 -5735 -5736 -5737 0
-5732 -5735 -5736 5737 0
5732 5735 -5736 5737 0
5732 -5735 5736 5737 0
-5732 5735 5736 5737 0
3481 5738 0
169 5738 0
-3481 -169 -5738 0
109 5737 5738 -5739 0
-109 -5737 5738 -5739 0
-109 5737 -5738 -5739 0
109 -5737 -5738 -5739 0
-109 -5737 -5738 5739 0
109 5737 -5738 5739 0
109 -5737 5738 5739 0
-109 5737 5738 5739 0
-102 -5739 0
-106 -5739 0
3365 -5739 0
3480 5740 0
120 5740 0
-120 -3480 -5740 0
3336 5741 0
60 5741 0
-60 -3336 -5741 0
3390 5742 0
160 5742 0
-160 -3390 -5742 0
-5741 5742 -5743 0
5741 -5742 -5743 0
-5741 -5742 5743 0
5741 5742 5743 0
3479 5744 0
70 5744 0
-3479 -70 -5744 0
5740 5743 5744 -5745 0
-5740 -5743 5744 -5745 0
-5740 5743 -5744 -5745 0
5740 -5743 -5744 -5745 0
-5740 -5743 -5744 5745 0
5740 5743 -5744 5745 0
5740 -5743 5744 5745 0
-5740 5743 5744 5745 0
3481 5746 0
170 5746 0
-3481 -170 -5746 0
110 5745 5746 -5747 0
-110 -5745 5746 -5747 0
-110 5745 -5746 -5747 0
110 -5745 -5746 -5747 0
-110 -5745 -5746 5747 0
110 5745 -5746 5747 0
110 -5745 5746 5747 0
-110 5745 5746 5747 0
-102 -5747 0
-106 -5747 0
3365 -5747 0
3487 5748 0
171 5748 0
-3487 -171 -5748 0
3484 5749 0
71 5749 0
-3484 -71 -5749 0
3333 5750 0
51 5750 0
-3333 -51 -5750 0
3388 5751 0
151 5751 0
-3388 -151 -5751 0
3486 5752 0
161 5752 0
-161 -3486 -5752 0
3363 5753 0
101 5753 0
-101 -3363 -5753 0
5751 5752 5753 -5754 0
-5751 -5752 5753 -5754 0
-5751 5752 -5753 -5754 0
5751 -5752 -5753 -5754 0
-5751 -5752 -5753 5754 0
5751 5752 -5753 5754 0
5751 -5752 5753 5754 0
-5751 5752 5753 5754 0
3483 5755 0
61 5755 0
-61 -3483 -5755 0
5750 5754 5755 -5756 0
-5750 -5754 5755 -5756 0
-5750 5754 -5755 -5756 0
5750 -5754 -5755 -5756 0
-5750 -5754 -5755 5756 0
5750 5754 -5755 5756 0
5750 -5754 5755 5756 0
-5750 5754 5755 5756 0
3485 5757 0
121 5757 0
-121 -3485 -5757 0
5749 5756 5757 -5758 0
-5749 -5756 5757 -5758 0
-5749 5756 -5757 -5758 0
5749 -5756 -5757 -5758 0
-5749 -5756 -5757 5758 0
5749 5756 -5757 5758 0
5749 -5756 5757 5758 0
-5749 5756 5757 5758 0
111 5748 5758 -5759 0
-111 -5748 5758 -5759 0
-111 5748 -5758 -5759 0
111 -5748 -5758 -5759 0
-111 -5748 -5758 5759 0
111 5748 -5758 5759 0
111 -5748 5758 5759 0
-111 5748 5758 5759 0
-112 -5759 0
-116 -5759 0
3369 -5759 0
3487 5760 0
177 5760 0
-3487 -177 -5760 0
3484 5761 0
77 5761 0
-3484 -77 -5761 0
3333 5762 0
57 5762 0
-3333 -57 -5762 0
3388 5763 0
157 5763 0
-3388 -157 -5763 0
3486 5764 0
167 5764 0
-167 -3486 -5764 0
3363 5765 0
107 5765 0
-107 -3363 -5765 0
5763 5764 5765 -5766 0
-5763 -5764 5765 -5766 0
-5763 5764 -5765 -5766 0
5763 -5764 -5765 -5766 0
-5763 -5764 -5765 5766 0
5763 5764 -5765 5766 0
5763 -5764 5765 5766 0
-5763 5764 5765 5766 0
3483 5767 0
67 5767 0
-67 -3483 -5767 0
5762 5766 5767 -5768 0
-5762 -5766 5767 -5768 0
-5762 5766 -5767 -5768 0
5762 -5766 -5767 -5768 0
-5762 -5766 -5767 5768 0
5762 5766 -5767 5768 0
5762 -5766 5767 5768 0
-5762 5766 5767 5768 0
3485 5769 0
127 5769 0
-127 -3485 -5769 0
5761 5768 5769 -5770 0
-5761 -5768 5769 -5770 0
-5761 5768 -5769 -5770 0
5761 -5768 -5769 -5770 0
-5761 -5768 -5769 5770 0
5761 5768 -5769 5770 0
5761 -5768 5769 5770 0
-5761 5768 5769 5770 0
117 5760 5770 -5771 0
-117 -5760 5770 -5771 0
-117 5760 -5770 -5771 0
117 -5760 -5770 -5771 0
-117 -5760 -5770 5771 0
117 5760 -5770 5771 0
117 -5760 5770 5771 0
-117 5760 5770 5771 0
-112 -5771 0
-116 -5771 0
3369 -5771 0
3487 5772 0
178 5772 0
-3487 -178 -5772 0
3484 5773 0
78 5773 0
-3484 -78 -5773 0
3333 5774 0
58 5774 0
-3333 -58 -5774 0
3388 5775 0
158 5775 0
-3388 -158 -5775 0
3486 5776 0
168 5776 0
-168 -3486 -5776 0
3363 5777 0
108 5777 0
-108 -3363 -5777 0
5775 5776 5777 -5778 0
-5775 -5776 5777 -5778 0
-5775 5776 -5777 -5778 0
5775 -5776 -5777 -5778 0
-5775 -5776 -5777 5778 0
5775 5776 -5777 5778 0
5775 -5776 5777 5778 0
-5775 5776 5777 5778 0
3483 5779 0
68 5779 0
-68 -3483 -5779 0
5774 5778 5779 -5780 0
-5774 -5778 5779 -5780 0
-5774 5778 -5779 -5780 0
5774 -5778 -5779 -5780 0
-5774 -5778 -5779 5780 0
5774 5778 -5779 5780 0
5774 -5778 5779 5780 0
-5774 5778 5779 5780 0
3485 5781 0
128 5781 0
-128 -3485 -5781 0
5773 5780 5781 -5782 0
-5773 -5780 5781 -5782 0
-5773 5780 -5781 -5782 0
5773 -5780 -5781 -5782 0
-5773 -5780 -5781 5782 0
5773 5780 -5781 5782 0
5773 -5780 5781 5782 0
-5773 5780 5781 5782 0
118 5772 5782 -5783 0
-118 -5772 5782 -5783 0
-118 5772 -5782 -5783 0
118 -5772 -5782 -5783 0
-118 -5772 -5782 5783 0
118 5772 -5782 5783 0
118 -5772 5782 5783 0
-118 5772 5782 5783 0
-112 -5783 0
-116 -5783 0
3369 -5783 0
3487 5784 0
179 5784 0
-3487 -179 -5784 0
3484 5785 0
79 5785 0
-3484 -79 -5785 0
3333 5786 0
59 5786 0
-3333 -59 -5786 0
3388 5787 0
159 5787 0
-3388 -159 -5787 0
3486 5788 0
169 5788 0
-169 -3486 -5788 0
3363 5789 0
109 5789 0
-109 -3363 -5789 0
5787 5788 5789 -5790 0
-5787 -5788 5789 -5790 0
-5787 5788 -5789 -5790 0
5787 -5788 -5789 -5790 0
-5787 -5788 -5789 5790 0
5787 5788 -5789 5790 0
5787 -5788 5789 5790 0
-5787 5788 5789 5790 0
3483 5791 0
69 5791 0
-69 -3483 -5791 0
5786 5790 5791 -5792 0
-5786 -5790 5791 -5792 0
-5786 5790 -5791 -5792 0
5786 -5790 -5791 -5792 0
-5786 -5790 -5791 5792 0
5786 5790 -5791 5792 0
5786 -5790 5791 5792 0
-5786 5790 5791 5792 0
3485 5793 0
129 5793 0
-129 -3485 -5793 0
5785 5792 5793 -5794 0
-5785 -5792 5793 -5794 0
-5785 5792 -5793 -5794 0
5785 -5792 -5793 -5794 0
-5785 -5792 -5793 5794 0
5785 5792 -5793 5794 0
5785 -5792 5793 5794 0
-5785 5792 5793 5794 0
119 5784 5794 -5795 0
-119 -5784 5794 -5795 0
-119 5784 -5794 -5795 0
119 -5784 -5794 -5795 0
-119 -5784 -5794 5795 0
119 5784 -5794 5795 0
119 -5784 5794 5795 0
-119 5784 5794 5795 0
-112 -5795 0
-116 -5795 0
3369 -5795 0
3487 5796 0
180 5796 0
-3487 -180 -5796 0
3484 5797 0
80 5797 0
-3484 -80 -5797 0
3333 5798 0
60 5798 0
-3333 -60 -5798 0
3388 5799 0
160 5799 0
-3388 -160 -5799 0
3486 5800 0
170 5800 0
-170 -3486 -5800 0
3363 5801 0
110 5801 0
-110 -3363 -5801 0
5799 5800 5801 -5802 0
-5799 -5800 5801 -5802 0
-5799 5800 -5801 -5802 0
5799 -5800 -5801 -5802 0
-5799 -5800 -5801 5802 0
5799 5800 -5801 5802 0
5799 -5800 5801 5802 0
-5799 5800 5801 5802 0
3483 5803 0
70 5803 0
-70 -3483 -5803 0
5798 5802 5803 -5804 0
-5798 -5802 5803 -5804 0
-5798 5802 -5803 -5804 0
5798 -5802 -5803 -5804 0
-5798 -5802 -5803 5804 0
5798 5802 -5803 5804 0
5798 -5802 5803 5804 0
-5798 5802 5803 5804 0
3485 5805 0
130 5805 0
-130 -3485 -5805 0
5797 5804 5805 -5806 0
-5797 -5804 5805 -5806 0
-5797 5804 -5805 -5806 0
5797 -5804 -5805 -5806 0
-5797 -5804 -5805 5806 0
5797 5804 -5805 5806 0
5797 -5804 5805 5806 0
-5797 5804 5805 5806 0
120 5796 5806 -5807 0
-120 -5796 5806 -5807 0
-120 5796 -5806 -5807 0
120 -5796 -5806 -5807 0
-120 -5796 -5806 5807 0
120 5796 -5806 5807 0
120 -5796 5806 5807 0
-120 5796 5806 5807 0
-112 -5807 0
-116 -5807 0
3369 -5807 0
3496 5808 0
181 5808 0
-3496 -181 -5808 0
3491 5809 0
81 5809 0
-3491 -81 -5809 0
3489 5810 0
61 5810 0
-3489 -61 -5810 0
3494 5811 0
161 5811 0
-3494 -161 -5811 0
3495 5812 0
171 5812 0
-171 -3495 -5812 0
3492 5813 0
111 5813 0
-111 -3492 -5813 0
5811 5812 5813 -5814 0
-5811 -5812 5813 -5814 0
-5811 5812 -5813 -5814 0
5811 -5812 -5813 -5814 0
-5811 -5812 -5813 5814 0
5811 5812 -5813 5814 0
5811 -5812 5813 5814 0
-5811 5812 5813 5814 0
3490 5815 0
71 5815 0
-71 -3490 -5815 0
5810 5814 5815 -5816 0
-5810 -5814 5815 -5816 0
-5810 5814 -5815 -5816 0
5810 -5814 -5815 -5816 0
-5810 -5814 -5815 5816 0
5810 5814 -5815 5816 0
5810 -5814 5815 5816 0
-5810 5814 5815 5816 0
3493 5817 0
131 5817 0
-131 -3493 -5817 0
5809 5816 5817 -5818 0
-5809 -5816 5817 -5818 0
-5809 5816 -5817 -5818 0
5809 -5816 -5817 -5818 0
-5809 -5816 -5817 5818 0
5809 5816 -5817 5818 0
5809 -5816 5817 5818 0
-5809 5816 5817 5818 0
121 5808 5818 -5819 0
-121 -5808 5818 -5819 0
-121 5808 -5818 -5819 0
121 -5808 -5818 -5819 0
-121 -5808 -5818 5819 0
121 5808 -5818 5819 0
121 -5808 5818 5819 0
-121 5808 5818 5819 0
-122 -5819 0
-126 -5819 0
3373 -5819 0
3496 5820 0
187 5820 0
-3496 -187 -5820 0
3491 5821 0
87 5821 0
-3491 -87 -5821 0
3489 5822 0
67 5822 0
-3489 -67 -5822 0
3494 5823 0
167 5823 0
-3494 -167 -5823 0
3495 5824 0
177 5824 0
-177 -3495 -5824 0
3492 5825 0
117 5825 0
-117 -3492 -5825 0
5823 5824 5825 -5826 0
-5823 -5824 5825 -5826 0
-5823 5824 -5825 -5826 0
5823 -5824 -5825 -5826 0
-5823 -5824 -5825 5826 0
5823 5824 -5825 5826 0
5823 -5824 5825 5826 0
-5823 5824 5825 5826 0
3490 5827 0
77 5827 0
-77 -3490 -5827 0
5822 5826 5827 -5828 0
-5822 -5826 5827 -5828 0
-5822 5826 -5827 -5828 0
5822 -5826 -5827 -5828 0
-5822 -5826 -5827 5828 0
5822 5826 -5827 5828 0
5822 -5826 5827 5828 0
-5822 5826 5827 5828 0
3493 5829 0
137 5829 0
-137 -3493 -5829 0
5821 5828 5829 -5830 0
-5821 -5828 5829 -5830 0
-5821 5828 -5829 -5830 0
5821 -5828 -5829 -5830 0
-5821 -5828 -5829 5830 0
5821 5828 -5829 5830 0
5821 -5828 5829 5830 0
-5821 5828 5829 5830 0
127 5820 5830 -5831 0
-127 -5820 5830 -5831 0
-127 5820 -5830 -5831 0
127 -5820 -5830 -5831 0
-127 -5820 -5830 5831 0
127 5820 -5830 5831 0
127 -5820 5830 5831 0
-127 5820 5830 5831 0
-122 -5831 0
-126 -5831 0
3373 -5831 0
3496 5832 0
188 5832 0
-3496 -188 -5832 0
3491 5833 0
88 5833 0
-3491 -88 -5833 0
3489 5834 0
68 5834 0
-3489 -68 -5834 0
3494 5835 0
168 5835 0
-3494 -168 -5835 0
3495 5836 0
178 5836 0
-178 -3495 -5836 0
3492 5837 0
118 5837 0
-118 -3492 -5837 0
5835 5836 5837 -5838 0
-5835 -5836 5837 -5838 0
-5835 5836 -5837 -5838 0
5835 -5836 -5837 -5838 0
-5835 -5836 -5837 5838 0
5835 5836 -5837 5838 0
5835 -5836 5837 5838 0
-5835 5836 5837 5838 0
3490 5839 0
78 5839 0
-78 -3490 -5839 0
5834 5838 5839 -5840 0
-5834 -5838 5839 -5840 0
-5834 5838 -5839 -5840 0
5834 -5838 -5839 -5840 0
-5834 -5838 -5839 5840 0
5834 5838 -5839 5840 0
5834 -5838 5839 5840 0
-5834 5838 5839 5840 0
3493 5841 0
138 5841 0
-138 -3493 -5841 0
5833 5840 5841 -5842 0
-5833 -5840 5841 -5842 0
-5833 5840 -5841 -5842 0
5833 -5840 -5841 -5842 0
-5833 -5840 -5841 5842 0
5833 5840 -5841 5842 0
5833 -5840 5841 5842 0
-5833 5840 5841 5842 0
128 5832 5842 -5843 0
-128 -5832 5842 -5843 0
-128 5832 -5842 -5843 0
128 -5832 -5842 -5843 0
-128 -5832 -5842 5843 0
128 5832 -5842 5843 0
128 -5832 5842 5843 0
-128 5832 5842 5843 0
-122 -5843 0
-126 -5843 0
3373 -5843 0
3496 5844 0
189 5844 0
-3496 -189 -5844 0
3491 5845 0
89 5845 0
-3491 -89 -5845 0
3489 5846 0
69 5846 0
-3489 -69 -5846 0
3494 5847 0
169 5847 0
-3494 -169 -5847 0
3495 5848 0
179 5848 0
-179 -3495 -5848 0
3492 5849 0
119 5849 0
-119 -3492 -5849 0
5847 5848 5849 -5850 0
-5847 -5848 5849 -5850 0
-5847 5848 -5849 -5850 0
5847 -5848 -5849 -5850 0
-5847 -5848 -5849 5850 0
5847 5848 -5849 5850 0
5847 -5848 5849 5850 0
-5847 5848 5849 5850 0
3490 5851 0
79 5851 0
-79 -3490 -5851 0
5846 5850 5851 -5852 0
-5846 -5850 5851 -5852 0
-5846 5850 -5851 -5852 0
5846 -5850 -5851 -5852 0
-5846 -5850 -5851 5852 0
5846 5850 -5851 5852 0
5846 -5850 5851 5852 0
-5846 5850 5851 5852 0
3493 5853 0
139 5853 0
-139 -3493 -5853 0
5845 5852 5853 -5854 0
-5845 -5852 5853 -5854 0
-5845 5852 -5853 -5854 0
5845 -5852 -5853 -5854 0
-5845 -5852 -5853 5854 0
5845 5852 -5853 5854 0
5845 -5852 5853 5854 0
-5845 5852 5853 5854 0
129 5844 5854 -5855 0
-129 -5844 5854 -5855 0
-129 5844 -5854 -5855 0
129 -5844 -5854 -5855 0
-129 -5844 -5854 5855 0
129 5844 -5854 5855 0
129 -5844 5854 5855 0
-129 5844 5854 5855 0
-122 -5855 0
-126 -5855 0
3373 -5855 0
3496 5856 0
190 5856 0
-3496 -190 -5856 0
3491 5857 0
90 5857 0
-3491 -90 -5857 0
3489 5858 0
70 5858 0
-3489 -70 -5858 0
3494 5859 0
170 5859 0
-3494 -170 -5859 0
3495 5860 0
180 5860 0
-180 -3495 -5860 0
3492 5861 0
120 5861 0
-120 -3492 -5861 0
5859 5860 5861 -5862 0
-5859 -5860 5861 -5862 0
-5859 5860 -5861 -5862 0
5859 -5860 -5861 -5862 0
-5859 -5860 -5861 5862 0
5859 5860 -5861 5862 0
5859 -5860 5861 5862 0
-5859 5860 5861 5862 0
3490 5863 0
80 5863 0
-80 -3490 -5863 0
5858 5862 5863 -5864 0
-5858 -5862 5863 -5864 0
-5858 5862 -5863 -5864 0
5858 -5862 -5863 -5864 0
-5858 -5862 -5863 5864 0
5858 5862 -5863 5864 0
5858 -5862 5863 5864 0
-5858 5862 5863 5864 0
3493 5865 0
140 5865 0
-140 -3493 -5865 0
5857 5864 5865 -5866 0
-5857 -5864 5865 -5866 0
-5857 5864 -5865 -5866 0
5857 -5864 -5865 -5866 0
-5857 -5864 -5865 5866 0
5857 5864 -5865 5866 0
5857 -5864 5865 5866 0
-5857 5864 5865 5866 0
130 5856 5866 -5867 0
-130 -5856 5866 -5867 0
-130 5856 -5866 -5867 0
130 -5856 -5866 -5867 0
-130 -5856 -5866 5867 0
130 5856 -5866 5867 0
130 -5856 5866 5867 0
-130 5856 5866 5867 0
-122 -5867 0
-126 -5867 0
3373 -5867 0
3408 5868 0
191 5868 0
-3408 -191 -5868 0
3353 5869 0
91 5869 0
-3353 -91 -5869 0
3498 5870 0
71 5870 0
-3498 -71 -5870 0
3501 5871 0
171 5871 0
-3501 -171 -5871 0
3502 5872 0
181 5872 0
-181 -3502 -5872 0
3500 5873 0
121 5873 0
-121 -3500 -5873 0
5871 5872 5873 -5874 0
-5871 -5872 5873 -5874 0
-5871 5872 -5873 -5874 0
5871 -5872 -5873 -5874 0
-5871 -5872 -5873 5874 0
5871 5872 -5873 5874 0
5871 -5872 5873 5874 0
-5871 5872 5873 5874 0
3499 5875 0
81 5875 0
-81 -3499 -5875 0
5870 5874 5875 -5876 0
-5870 -5874 5875 -5876 0
-5870 5874 -5875 -5876 0
5870 -5874 -5875 -5876 0
-5870 -5874 -5875 5876 0
5870 5874 -5875 5876 0
5870 -5874 5875 5876 0
-5870 5874 5875 5876 0
3384 5877 0
141 5877 0
-141 -3384 -5877 0
5869 5876 5877 -5878 0
-5869 -5876 5877 -5878 0
-5869 5876 -5877 -5878 0
5869 -5876 -5877 -5878 0
-5869 -5876 -5877 5878 0
5869 5876 -5877 5878 0
5869 -5876 5877 5878 0
-5869 5876 5877 5878 0
131 5868 5878 -5879 0
-131 -5868 5878 -5879 0
-131 5868 -5878 -5879 0
131 -5868 -5878 -5879 0
-131 -5868 -5878 5879 0
131 5868 -5878 5879 0
131 -5868 5878 5879 0
-131 5868 5878 5879 0
-132 -5879 0
-136 -5879 0
3377 -5879 0
3408 5880 0
197 5880 0
-3408 -197 -5880 0
3353 5881 0
97 5881 0
-3353 -97 -5881 0
3498 5882 0
77 5882 0
-3498 -77 -5882 0
3501 5883 0
177 5883 0
-3501 -177 -5883 0
3502 5884 0
187 5884 0
-187 -3502 -5884 0
3500 5885 0
127 5885 0
-127 -3500 -5885 0
5883 5884 5885 -5886 0
-5883 -5884 5885 -5886 0
-5883 5884 -5885 -5886 0
5883 -5884 -5885 -5886 0
-5883 -5884 -5885 5886 0
5883 5884 -5885 5886 0
5883 -5884 5885 5886 0
-5883 5884 5885 5886 0
3499 5887 0
87 5887 0
-87 -3499 -5887 0
5882 5886 5887 -5888 0
-5882 -5886 5887 -5888 0
-5882 5886 -5887 -5888 0
5882 -5886 -5887 -5888 0
-5882 -5886 -5887 5888 0
5882 5886 -5887 5888 0
5882 -5886 5887 5888 0
-5882 5886 5887 5888 0
3384 5889 0
147 5889 0
-147 -3384 -5889 0
5881 5888 5889 -5890 0
-5881 -5888 5889 -5890 0
-5881 5888 -5889 -5890 0
5881 -5888 -5889 -5890 0
-5881 -5888 -5889 5890 0
5881 5888 -5889 5890 0
5881 -5888 5889 5890 0
-5881 5888 5889 5890 0
137 5880 5890 -5891 0
-137 -5880 5890 -5891 0
-137 5880 -5890 -5891 0
137 -5880 -5890 -5891 0
-137 -5880 -5890 5891 0
137 5880 -5890 5891 0
137 -5880 5890 5891 0
-137 5880 5890 5891 0
-132 -5891 0
-136 -5891 0
3377 -5891 0
3408 5892 0
198 5892 0
-3408 -198 -5892 0
3353 5893 0
98 5893 0
-3353 -98 -5893 0
3498 5894 0
78 5894 0
-3498 -78 -5894 0
3501 5895 0
178 5895 0
-3501 -178 -5895 0
3502 5896 0
188 5896 0
-188 -3502 -5896 0
3500 5897 0
128 5897 0
-128 -3500 -5897 0
5895 5896 5897 -5898 0
-5895 -5896 5897 -5898 0
-5895 5896 -5897 -5898 0
5895 -5896 -5897 -5898 0
-5895 -5896 -5897 5898 0
5895 5896 -5897 5898 0
5895 -5896 5897 5898 0
-5895 5896 5897 5898 0
3499 5899 0
88 5899 0
-88 -3499 -5899 0
5894 5898 5899 -5900 0
-5894 -5898 5899 -5900 0
-5894 5898 -5899 -5900 0
5894 -5898 -5899 -5900 0
-5894 -5898 -5899 5900 0
5894 5898 -5899 5900 0
5894 -5898 5899 5900 0
-5894 5898 5899 5900 0
3384 5901 0
148 5901 0
-148 -3384 -5901 0
5893 5900 5901 -5902 0
-5893 -5900 5901 -5902 0
-5893 5900 -5901 -5902 0
5893 -5900 -5901 -5902 0
-5893 -5900 -5901 5902 0
5893 5900 -5901 5902 0
5893 -5900 5901 5902 0
-5893 5900 5901 5902 0
138 5892 5902 -5903 0
-138 -5892 5902 -5903 0
-138 5892 -5902 -5903 0
138 -5892 -5902 -5903 0
-138 -5892 -5902 5903 0
138 5892 -5902 5903 0
138 -5892 5902 5903 0
-138 5892 5902 5903 0
-132 -5903 0
-136 -5903 0
3377 -5903 0
3408 5904 0
199 5904 0
-3408 -199 -5904 0
3353 5905 0
99 5905 0
-3353 -99 -5905 0
3498 5906 0
79 5906 0
-3498 -79 -5906 0
3501 5907 0
179 5907 0
-3501 -179 -5907 0
3502 5908 0
189 5908 0
-189 -3502 -5908 0
3500 5909 0
129 5909 0
-129 -3500 -5909 0
5907 5908 5909 -5910 0
-5907 -5908 5909 -5910 0
-5907 5908 -5909 -5910 0
5907 -5908 -5909 -5910 0
-5907 -5908 -5909 5910 0
5907 5908 -5909 5910 0
5907 -5908 5909 5910 0
-5907 5908 5909 5910 0
3499 5911 0
89 5911 0
-89 -3499 -5911 0
5906 5910 5911 -5912 0
-5906 -5910 5911 -5912 0
-5906 5910 -5911 -5912 0
5906 -5910 -5911 -5912 0
-5906 -5910 -5911 5912 0
5906 5910 -5911 5912 0
5906 -5910 5911 5912 0
-5906 5910 5911 5912 0
3384 5913 0
149 5913 0
-149 -3384 -5913 0
5905 5912 5913 -5914 0
-5905 -5912 5913 -5914 0
-5905 5912 -5913 -5914 0
5905 -5912 -5913 -5914 0
-5905 -5912 -5913 5914 0
5905 5912 -5913 5914 0
5905 -5912 5913 5914 0
-5905 5912 5913 5914 0
139 5904 5914 -5915 0
-139 -5904 5914 -5915 0
-139 5904 -5914 -5915 0
139 -5904 -5914 -5915 0
-139 -5904 -5914 5915 0
139 5904 -5914 5915 0
139 -5904 5914 5915 0
-139 5904 5914 5915 0
-132 -5915 0
-136 -5915 0
3377 -5915 0
3408 5916 0
200 5916 0
-3408 -200 -5916 0
3353 5917 0
100 5917 0
-3353 -100 -5917 0
3498 5918 0
80 5918 0
-3498 -80 -5918 0
3501 5919 0
180 5919 0
-3501 -180 -5919 0
3502 5920 0
190 5920 0
-190 -3502 -5920 0
3500 5921 0
130 5921 0
-130 -3500 -5921 0
5919 5920 5921 -5922 0
-5919 -5920 5921 -5922 0
-5919 5920 -5921 -5922 0
5919 -5920 -5921 -5922 0
-5919 -5920 -5921 5922 0
5919 5920 -5921 5922 0
5919 -5920 5921 5922 0
-5919 5920 5921 5922 0
3499 5923 0
90 5923 0
-90 -3499 -5923 0
5918 5922 5923 -5924 0
-5918 -5922 5923 -5924 0
-5918 5922 -5923 -5924 0
5918 -5922 -5923 -5924 0
-5918 -5922 -5923 5924 0
5918 5922 -5923 5924 0
5918 -5922 5923 5924 0
-5918 5922 5923 5924 0
3384 5925 0
150 5925 0
-150 -3384 -5925 0
5917 5924 5925 -5926 0
-5917 -5924 5925 -5926 0
-5917 5924 -5925 -5926 0
5917 -5924 -5925 -5926 0
-5917 -5924 -5925 5926 0
5917 5924 -5925 5926 0
5917 -5924 5925 5926 0
-5917 5924 5925 5926 0
140 5916 5926 -5927 0
-140 -5916 5926 -5927 0
-140 5916 -5926 -5927 0
140 -5916 -5926 -5927 0
-140 -5916 -5926 5927 0
140 5916 -5926 5927 0
140 -5916 5926 5927 0
-140 5916 5926 5927 0
-132 -5927 0
-136 -5927 0
3377 -5927 0
3504 5928 0
81 5928 0
-3504 -81 -5928 0
3506 5929 0
181 5929 0
-3506 -181 -5929 0
3410 5930 0
191 5930 0
-191 -3410 -5930 0
-5929 5930 -5931 0
5929 -5930 -5931 0
-5929 -5930 5931 0
5929 5930 5931 0
3505 5932 0
131 5932 0
-131 -3505 -5932 0
5928 5931 5932 -5933 0
-5928 -5931 5932 -5933 0
-5928 5931 -5932 -5933 0
5928 -5931 -5932 -5933 0
-5928 -5931 -5932 5933 0
5928 5931 -5932 5933 0
5928 -5931 5932 5933 0
-5928 5931 5932 5933 0
3355 5934 0
91 5934 0
-91 -3355 -5934 0
141 5933 5934 -5935 0
-141 -5933 5934 -5935 0
-141 5933 -5934 -5935 0
141 -5933 -5934 -5935 0
-141 -5933 -5934 5935 0
141 5933 -5934 5935 0
141 -5933 5934 5935 0
-141 5933 5934 5935 0
-142 -5935 0
-146 -5935 0
3385 -5935 0
3504 5936 0
87 5936 0
-3504 -87 -5936 0
3506 5937 0
187 5937 0
-3506 -187 -5937 0
3410 5938 0
197 5938 0
-197 -3410 -5938 0
-5937 5938 -5939 0
5937 -5938 -5939 0
-5937 -5938 5939 0
5937 5938 5939 0
3505 5940 0
137 5940 0
-137 -3505 -5940 0
5936 5939 5940 -5941 0
-5936 -5939 5940 -5941 0
-5936 5939 -5940 -5941 0
5936 -5939 -5940 -5941 0
-5936 -5939 -5940 5941 0
5936 5939 -5940 5941 0
5936 -5939 5940 5941 0
-5936 5939 5940 5941 0
3355 5942 0
97 5942 0
-97 -3355 -5942 0
147 5941 5942 -5943 0
-147 -5941 5942 -5943 0
-147 5941 -5942 -5943 0
147 -5941 -5942 -5943 0
-147 -5941 -5942 5943 0
147 5941 -5942 5943 0
147 -5941 5942 5943 0
-147 5941 5942 5943 0
-142 -5943 0
-146 -5943 0
3385 -5943 0
3504 5944 0
88 5944 0
-3504 -88 -5944 0
3506 5945 0
188 5945 0
-3506 -188 -5945 0
3410 5946 0
198 5946 0
-198 -3410 -5946 0
-5945 5946 -5947 0
5945 -5946 -5947 0
-5945 -5946 5947 0
5945 5946 5947 0
3505 5948 0
138 5948 0
-138 -3505 -5948 0
5944 5947 5948 -5949 0
-5944 -5947 5948 -5949 0
-5944 5947 -5948 -5949 0
5944 -5947 -5948 -5949 0
-5944 -5947 -5948 5949 0
5944 5947 -5948 5949 0
5944 -5947 5948 5949 0
-5944 5947 5948 5949 0
3355 5950 0
98 5950 0
-98 -3355 -5950 0
148 5949 5950 -5951 0
-148 -5949 5950 -5951 0
-148 5949 -5950 -5951 0
148 -5949 -5950 -5951 0
-148 -5949 -5950 5951 0
148 5949 -5950 5951 0
148 -5949 5950 5951 0
-148 5949 5950 5951 0
-142 -5951 0
-146 -5951 0
3385 -5951 0
3504 5952 0
89 5952 0
-3504 -89 -5952 0
3506 5953 0
189 5953 0
-3506 -189 -5953 0
3410 5954 0
199 5954 0
-199 -3410 -5954 0
-5953 5954 -5955 0
5953 -5954 -5955 0
-5953 -5954 5955 0
5953 5954 5955 0
3505 5956 0
139 5956 0
-139 -3505 -5956 0
5952 5955 5956 -5957 0
-5952 -5955 5956 -5957 0
-5952 5955 -5956 -5957 0
5952 -5955 -5956 -5957 0
-5952 -5955 -5956 5957 0
5952 5955 -5956 5957 0
5952 -5955 5956 5957 0
-5952 5955 5956 5957 0
3355 5958 0
99 5958 0
-99 -3355 -5958 0
149 5957 5958 -5959 0
-149 -5957 5958 -5959 0
-149 5957 -5958 -5959 0
149 -5957 -5958 -5959 0
-149 -5957 -5958 5959 0
149 5957 -5958 5959 0
149 -5957 5958 5959 0
-149 5957 5958 5959 0
-142 -5959 0
-146 -5959 0
3385 -5959 0
3504 5960 0
90 5960 0
-3504 -90 -5960 0
3506 5961 0
190 5961 0
-3506 -190 -5961 0
3410 5962 0
200 5962 0
-200 -3410 -5962 0
-5961 5962 -5963 0
5961 -5962 -5963 0
-5961 -5962 5963 0
5961 5962 5963 0
3505 5964 0
140 5964 0
-140 -3505 -5964 0
5960 5963 5964 -5965 0
-5960 -5963 5964 -5965 0
-5960 5963 -5964 -5965 0
5960 -5963 -5964 -5965 0
-5960 -5963 -5964 5965 0
5960 5963 -5964 5965 0
5960 -5963 5964 5965 0
-5960 5963 5964 5965 0
3355 5966 0
100 5966 0
-100 -3355 -5966 0
150 5965 5966 -5967 0
-150 -5965 5966 -5967 0
-150 5965 -5966 -5967 0
150 -5965 -5966 -5967 0
-150 -5965 -5966 5967 0
150 5965 -5966 5967 0
150 -5965 5966 5967 0
-150 5965 5966 5967 0
-142 -5967 0
-146 -5967 0
3385 -5967 0
3509 5968 0
161 5968 0
-161 -3509 -5968 0
3364 5969 0
101 5969 0
-101 -3364 -5969 0
3510 5970 0
201 5970 0
-201 -3510 -5970 0
-5969 5970 -5971 0
5969 -5970 -5971 0
-5969 -5970 5971 0
5969 5970 5971 0
3508 5972 0
111 5972 0
-3508 -111 -5972 0
5968 5971 5972 -5973 0
-5968 -5971 5972 -5973 0
-5968 5971 -5972 -5973 0
5968 -5971 -5972 -5973 0
-5968 -5971 -5972 5973 0
5968 5971 -5972 5973 0
5968 -5971 5972 5973 0
-5968 5971 5972 5973 0
3417 5974 0
211 5974 0
-3417 -211 -5974 0
151 5973 5974 -5975 0
-151 -5973 5974 -5975 0
-151 5973 -5974 -5975 0
151 -5973 -5974 -5975 0
-151 -5973 -5974 5975 0
151 5973 -5974 5975 0
151 -5973 5974 5975 0
-151 5973 5974 5975 0
-152 -5975 0
-156 -5975 0
3393 -5975 0
3509 5976 0
167 5976 0
-167 -3509 -5976 0
3364 5977 0
107 5977 0
-107 -3364 -5977 0
3510 5978 0
207 5978 0
-207 -3510 -5978 0
-5977 5978 -5979 0
5977 -5978 -5979 0
-5977 -5978 5979 0
5977 5978 5979 0
3508 5980 0
117 5980 0
-3508 -117 -5980 0
5976 5979 5980 -5981 0
-5976 -5979 5980 -5981 0
-5976 5979 -5980 -5981 0
5976 -5979 -5980 -5981 0
-5976 -5979 -5980 5981 0
5976 5979 -5980 5981 0
5976 -5979 5980 5981 0
-5976 5979 5980 5981 0
3417 5982 0
217 5982 0
-3417 -217 -5982 0
157 5981 5982 -5983 0
-157 -5981 5982 -5983 0
-157 5981 -5982 -5983 0
157 -5981 -5982 -5983 0
-157 -5981 -5982 5983 0
157 5981 -5982 5983 0
157 -5981 5982 5983 0
-157 5981 5982 5983 0
-152 -5983 0
-156 -5983 0
3393 -5983 0
3509 5984 0
168 5984 0
-168 -3509 -5984 0
3364 5985 0
108 5985 0
-108 -3364 -5985 0
3510 5986 0
208 5986 0
-208 -3510 -5986 0
-5985 5986 -5987 0
5985 -5986 -5987 0
-5985 -5986 5987 0
5985 5986 5987 0
3508 5988 0
118 5988 0
-3508 -118 -5988 0
5984 5987 5988 -5989 0
-5984 -5987 5988 -5989 0
-5984 5987 -5988 -5989 0
5984 -5987 -5988 -5989 0
-5984 -5987 -5988 5989 0
5984 5987 -5988 5989 0
5984 -5987 5988 5989 0
-5984 5987 5988 5989 0
3417 5990 0
218 5990 0
-3417 -218 -5990 0
158 5989 5990 -5991 0
-158 -5989 5990 -5991 0
-158 5989 -5990 -5991 0
158 -5989 -5990 -5991 0
-158 -5989 -5990 5991 0
158 5989 -5990 5991 0
158 -5989 5990 5991 0
-158 5989 5990 5991 0
-152 -5991 0
-156 -5991 0
3393 -5991 0
3509 5992 0
169 5992 0
-169 -3509 -5992 0
3364 5993 0
109 5993 0
-109 -3364 -5993 0
3510 5994 0
209 5994 0
-209 -3510 -5994 0
-5993 5994 -5995 0
5993 -5994 -5995 0
-5993 -5994 5995 0
5993 5994 5995 0
3508 5996 0
119 5996 0
-3508 -119 -5996 0
5992 5995 5996 -5997 0
-5992 -5995 5996 -5997 0
-5992 5995 -5996 -5997 0
5992 -5995 -5996 -5997 0
-5992 -5995 -5996 5997 0
5992 5995 -5996 5997 0
5992 -5995 5996 5997 0
-5992 5995 5996 5997 0
3417 5998 0
219 5998 0
-3417 -219 -5998 0
159 5997 5998 -5999 0
-159 -5997 5998 -5999 0
-159 5997 -5998 -5999 0
159 -5997 -5998 -5999 0
-159 -5997 -5998 5999 0
159 5997 -5998 5999 0
159 -5997 5998 5999 0
-159 5997 5998 5999 0
-152 -5999 0
-156 -5999 0
3393 -5999 0
3509 6000 0
170 6000 0
-170 -3509 -6000 0
3364 6001 0
110 6001 0
-110 -3364 -6001 0
3510 6002 0
210 6002 0
-210 -3510 -6002 0
-6001 6002 -6003 0
6001 -6002 -6003 0
-6001 -6002 6003 0
6001 6002 6003 0
3508 6004 0
120 6004 0
-3508 -120 -6004 0
6000 6003 6004 -6005 0
-6000 -6003 6004 -6005 0
-6000 6003 -6004 -6005 0
6000 -6003 -6004 -6005 0
-6000 -6003 -6004 6005 0
6000 6003 -6004 6005 0
6000 -6003 6004 6005 0
-6000 6003 6004 6005 0
3417 6006 0
220 6006 0
-3417 -220 -6006 0
160 6005 6006 -6007 0
-160 -6005 6006 -6007 0
-160 6005 -6006 -6007 0
160 -6005 -6006 -6007 0
-160 -6005 -6006 6007 0
160 6005 -6006 6007 0
160 -6005 6006 6007 0
-160 6005 6006 6007 0
-152 -6007 0
-156 -6007 0
3393 -6007 0
3425 6008 0
221 6008 0
-3425 -221 -6008 0
3513 6009 0
121 6009 0
-3513 -121 -6009 0
3361 6010 0
101 6010 0
-3361 -101 -6010 0
3515 6011 0
201 6011 0
-3515 -201 -6011 0
3418 6012 0
211 6012 0
-211 -3418 -6012 0
3391 6013 0
151 6013 0
-151 -3391 -6013 0
6011 6012 6013 -6014 0
-6011 -6012 6013 -6014 0
-6011 6012 -6013 -6014 0
6011 -6012 -6013 -6014 0
-6011 -6012 -6013 6014 0
6011 6012 -6013 6014 0
6011 -6012 6013 6014 0
-6011 6012 6013 6014 0
3512 6015 0
111 6015 0
-111 -3512 -6015 0
6010 6014 6015 -6016 0
-6010 -6014 6015 -6016 0
-6010 6014 -6015 -6016 0
6010 -6014 -6015 -6016 0
-6010 -6014 -6015 6016 0
6010 6014 -6015 6016 0
6010 -6014 6015 6016 0
-6010 6014 6015 6016 0
3514 6017 0
171 6017 0
-171 -3514 -6017 0
6009 6016 6017 -6018 0
-6009 -6016 6017 -6018 0
-6009 6016 -6017 -6018 0
6009 -6016 -6017 -6018 0
-6009 -6016 -6017 6018 0
6009 6016 -6017 6018 0
6009 -6016 6017 6018 0
-6009 6016 6017 6018 0
161 6008 6018 -6019 0
-161 -6008 6018 -6019 0
-161 6008 -6018 -6019 0
161 -6008 -6018 -6019 0
-161 -6008 -6018 6019 0
161 6008 -6018 6019 0
161 -6008 6018 6019 0
-161 6008 6018 6019 0
-162 -6019 0
-166 -6019 0
3397 -6019 0
3425 6020 0
227 6020 0
-3425 -227 -6020 0
3513 6021 0
127 6021 0
-3513 -127 -6021 0
3361 6022 0
107 6022 0
-3361 -107 -6022 0
3515 6023 0
207 6023 0
-3515 -207 -6023 0
3418 6024 0
217 6024 0
-217 -3418 -6024 0
3391 6025 0
157 6025 0
-157 -3391 -6025 0
6023 6024 6025 -6026 0
-6023 -6024 6025 -6026 0
-6023 6024 -6025 -6026 0
6023 -6024 -6025 -6026 0
-6023 -6024 -6025 6026 0
6023 6024 -6025 6026 0
6023 -6024 6025 6026 0
-6023 6024 6025 6026 0
3512 6027 0
117 6027 0
-117 -3512 -6027 0
6022 6026 6027 -6028 0
-6022 -6026 6027 -6028 0
-6022 6026 -6027 -6028 0
6022 -6026 -6027 -6028 0
-6022 -6026 -6027 6028 0
6022 6026 -6027 6028 0
6022 -6026 6027 6028 0
-6022 6026 6027 6028 0
3514 6029 0
177 6029 0
-177 -3514 -6029 0
6021 6028 6029 -6030 0
-6021 -6028 6029 -6030 0
-6021 6028 -6029 -6030 0
6021 -6028 -6029 -6030 0
-6021 -6028 -6029 6030 0
6021 6028 -6029 6030 0
6021 -6028 6029 6030 0
-6021 6028 6029 6030 0
167 6020 6030 -6031 0
-167 -6020 6030 -6031 0
-167 6020 -6030 -6031 0
167 -6020 -6030 -6031 0
-167 -6020 -6030 6031 0
167 6020 -6030 6031 0
167 -6020 6030 6031 0
-167 6020 6030 6031 0
-162 -6031 0
-166 -6031 0
3397 -6031 0
3425 6032 0
228 6032 0
-3425 -228 -6032 0
3513 6033 0
128 6033 0
-3513 -128 -6033 0
3361 6034 0
108 6034 0
-3361 -108 -6034 0
3515 6035 0
208 6035 0
-3515 -208 -6035 0
3418 6036 0
218 6036 0
-218 -3418 -6036 0
3391 6037 0
158 6037 0
-158 -3391 -6037 0
6035 6036 6037 -6038 0
-6035 -6036 6037 -6038 0
-6035 6036 -6037 -6038 0
6035 -6036 -6037 -6038 0
-6035 -6036 -6037 6038 0
6035 6036 -6037 6038 0
6035 -6036 6037 6038 0
-6035 6036 6037 6038 0
3512 6039 0
118 6039 0
-118 -3512 -6039 0
6034 6038 6039 -6040 0
-6034 -6038 6039 -6040 0
-6034 6038 -6039 -6040 0
6034 -6038 -6039 -6040 0
-6034 -6038 -6039 6040 0
6034 6038 -6039 6040 0
6034 -6038 6039 6040 0
-6034 6038 6039 6040 0
3514 6041 0
178 6041 0
-178 -3514 -6041 0
6033 6040 6041 -6042 0
-6033 -6040 6041 -6042 0
-6033 6040 -6041 -6042 0
6033 -6040 -6041 -6042 0
-6033 -6040 -6041 6042 0
6033 6040 -6041 6042 0
6033 -6040 6041 6042 0
-6033 6040 6041 6042 0
168 6032 6042 -6043 0
-168 -6032 6042 -6043 0
-168 6032 -6042 -6043 0
168 -6032 -6042 -6043 0
-168 -6032 -6042 6043 0
168 6032 -6042 6043 0
168 -6032 6042 6043 0
-168 6032 6042 6043 0
-162 -6043 0
-166 -6043 0
3397 -6043 0
3425 6044 0
229 6044 0
-3425 -229 -6044 0
3513 6045 0
129 6045 0
-3513 -129 -6045 0
3361 6046 0
109 6046 0
-3361 -109 -6046 0
3515 6047 0
209 6047 0
-3515 -209 -6047 0
3418 6048 0
219 6048 0
-219 -3418 -6048 0
3391 6049 0
159 6049 0
-159 -3391 -6049 0
6047 6048 6049 -6050 0
-6047 -6048 6049 -6050 0
-6047 6048 -6049 -6050 0
6047 -6048 -6049 -6050 0
-6047 -6048 -6049 6050 0
6047 6048 -6049 6050 0
6047 -6048 6049 6050 0
-6047 6048 6049 6050 0
3512 6051 0
119 6051 0
-119 -3512 -6051 0
6046 6050 6051 -6052 0
-6046 -6050 6051 -6052 0
-6046 6050 -6051 -6052 0
6046 -6050 -6051 -6052 0
-6046 -6050 -6051 6052 0
6046 6050 -6051 6052 0
6046 -6050 6051 6052 0
-6046 6050 6051 6052 0
3514 6053 0
179 6053 0
-179 -3514 -6053 0
6045 6052 6053 -6054 0
-6045 -6052 6053 -6054 0
-6045 6052 -6053 -6054 0
6045 -6052 -6053 -6054 0
-6045 -6052 -6053 6054 0
6045 6052 -6053 6054 0
6045 -6052 6053 6054 0
-6045 6052 6053 6054 0
169 6044 6054 -6055 0
-169 -6044 6054 -6055 0
-169 6044 -6054 -6055 0
169 -6044 -6054 -6055 0
-169 -6044 -6054 6055 0
169 6044 -6054 6055 0
169 -6044 6054 6055 0
-169 6044 6054 6055 0
-162 -6055 0
-166 -6055 0
3397 -6055 0
3425 6056 0
230 6056 0
-3425 -230 -6056 0
3513 6057 0
130 6057 0
-3513 -130 -6057 0
3361 6058 0
110 6058 0
-3361 -110 -6058 0
3515 6059 0
210 6059 0
-3515 -210 -6059 0
3418 6060 0
220 6060 0
-220 -3418 -6060 0
3391 6061 0
160 6061 0
-160 -3391 -6061 0
6059 6060 6061 -6062 0
-6059 -6060 6061 -6062 0
-6059 6060 -6061 -6062 0
6059 -6060 -6061 -6062 0
-6059 -6060 -6061 6062 0
6059 6060 -6061 6062 0
6059 -6060 6061 6062 0
-6059 6060 6061 6062 0
3512 6063 0
120 6063 0
-120 -3512 -6063 0
6058 6062 6063 -6064 0
-6058 -6062 6063 -6064 0
-6058 6062 -6063 -6064 0
6058 -6062 -6063 -6064 0
-6058 -6062 -6063 6064 0
6058 6062 -6063 6064 0
6058 -6062 6063 6064 0
-6058 6062 6063 6064 0
3514 6065 0
180 6065 0
-180 -3514 -6065 0
6057 6064 6065 -6066 0
-6057 -6064 6065 -6066 0
-6057 6064 -6065 -6066 0
6057 -6064 -6065 -6066 0
-6057 -6064 -6065 6066 0
6057 6064 -6065 6066 0
6057 -6064 6065 6066 0
-6057 6064 6065 6066 0
170 6056 6066 -6067 0
-170 -6056 6066 -6067 0
-170 6056 -6066 -6067 0
170 -6056 -6066 -6067 0
-170 -6056 -6066 6067 0
170 6056 -6066 6067 0
170 -6056 6066 6067 0
-170 6056 6066 6067 0
-162 -6067 0
-166 -6067 0
3397 -6067 0
3433 6068 0
231 6068 0
-3433 -231 -6068 0
3519 6069 0
131 6069 0
-3519 -131 -6069 0
3517 6070 0
111 6070 0
-3517 -111 -6070 0
3416 6071 0
211 6071 0
-3416 -211 -6071 0
3426 6072 0
221 6072 0
-221 -3426 -6072 0
3520 6073 0
161 6073 0
-161 -3520 -6073 0
6071 6072 6073 -6074 0
-6071 -6072 6073 -6074 0
-6071 6072 -6073 -6074 0
6071 -6072 -6073 -6074 0
-6071 -6072 -6073 6074 0
6071 6072 -6073 6074 0
6071 -6072 6073 6074 0
-6071 6072 6073 6074 0
3518 6075 0
121 6075 0
-121 -3518 -6075 0
6070 6074 6075 -6076 0
-6070 -6074 6075 -6076 0
-6070 6074 -6075 -6076 0
6070 -6074 -6075 -6076 0
-6070 -6074 -6075 6076 0
6070 6074 -6075 6076 0
6070 -6074 6075 6076 0
-6070 6074 6075 6076 0
3521 6077 0
181 6077 0
-181 -3521 -6077 0
6069 6076 6077 -6078 0
-6069 -6076 6077 -6078 0
-6069 6076 -6077 -6078 0
6069 -6076 -6077 -6078 0
-6069 -6076 -6077 6078 0
6069 6076 -6077 6078 0
6069 -6076 6077 6078 0
-6069 6076 6077 6078 0
171 6068 6078 -6079 0
-171 -6068 6078 -6079 0
-171 6068 -6078 -6079 0
171 -6068 -6078 -6079 0
-171 -6068 -6078 6079 0
171 6068 -6078 6079 0
171 -6068 6078 6079 0
-171 6068 6078 6079 0
-172 -6079 0
-176 -6079 0
3401 -6079 0
3433 6080 0
237 6080 0
-3433 -237 -6080 0
3519 6081 0
137 6081 0
-3519 -137 -6081 0
3517 6082 0
117 6082 0
-3517 -117 -6082 0
3416 6083 0
217 6083 0
-3416 -217 -6083 0
3426 6084 0
227 6084 0
-227 -3426 -6084 0
3520 6085 0
167 6085 0
-167 -3520 -6085 0
6083 6084 6085 -6086 0
-6083 -6084 6085 -6086 0
-6083 6084 -6085 -6086 0
6083 -6084 -6085 -6086 0
-6083 -6084 -6085 6086 0
6083 6084 -6085 6086 0
6083 -6084 6085 6086 0
-6083 6084 6085 6086 0
3518 6087 0
127 6087 0
-127 -3518 -6087 0
6082 6086 6087 -6088 0
-6082 -6086 6087 -6088 0
-6082 6086 -6087 -6088 0
6082 -6086 -6087 -6088 0
-6082 -6086 -6087 6088 0
6082 6086 -6087 6088 0
6082 -6086 6087 6088 0
-6082 6086 6087 6088 0
3521 6089 0
187 6089 0
-187 -3521 -6089 0
6081 6088 6089 -6090 0
-6081 -6088 6089 -6090 0
-6081 6088 -6089 -6090 0
6081 -6088 -6089 -6090 0
-6081 -6088 -6089 6090 0
6081 6088 -6089 6090 0
6081 -6088 6089 6090 0
-6081 6088 6089 6090 0
177 6080 6090 -6091 0
-177 -6080 6090 -6091 0
-177 6080 -6090 -6091 0
177 -6080 -6090 -6091 0
-177 -6080 -6090 6091 0
177 6080 -6090 6091 0
177 -6080 6090 6091 0
-177 6080 6090 6091 0
-172 -6091 0
-176 -6091 0
3401 -6091 0
3433 6092 0
238 6092 0
-3433 -238 -6092 0
3519 6093 0
138 6093 0
-3519 -138 -6093 0
3517 6094 0
118 6094 0
-3517 -118 -6094 0
3416 6095 0
218 6095 0
-3416 -218 -6095 0
3426 6096 0
228 6096 0
-228 -3426 -6096 0
3520 6097 0
168 6097 0
-168 -3520 -6097 0
6095 6096 6097 -6098 0
-6095 -6096 6097 -6098 0
-6095 6096 -6097 -6098 0
6095 -6096 -6097 -6098 0
-6095 -6096 -6097 6098 0
6095 6096 -6097 6098 0
6095 -6096 6097 6098 0
-6095 6096 6097 6098 0
3518 6099 0
128 6099 0
-128 -3518 -6099 0
6094 6098 6099 -6100 0
-6094 -6098 6099 -6100 0
-6094 6098 -6099 -6100 0
6094 -6098 -6099 -6100 0
-6094 -6098 -6099 6100 0
6094 6098 -6099 6100 0
6094 -6098 6099 6100 0
-6094 6098 6099 6100 0
3521 6101 0
188 6101 0
-188 -3521 -6101 0
6093 6100 6101 -6102 0
-6093 -6100 6101 -6102 0
-6093 6100 -6101 -6102 0
6093 -6100 -6101 -6102 0
-6093 -6100 -6101 6102 0
6093 6100 -6101 6102 0
6093 -6100 6101 6102 0
-6093 6100 6101 6102 0
178 6092 6102 -6103 0
-178 -6092 6102 -6103 0
-178 6092 -6102 -6103 0
178 -6092 -6102 -6103 0
-178 -6092 -6102 6103 0
178 6092 -6102 6103 0
178 -6092 6102 6103 0
-178 6092 6102 6103 0
-172 -6103 0
-176 -6103 0
3401 -6103 0
3433 6104 0
239 6104 0
-3433 -239 -6104 0
3519 6105 0
139 6105 0
-3519 -139 -6105 0
3517 6106 0
119 6106 0
-3517 -119 -6106 0
3416 6107 0
219 6107 0
-3416 -219 -6107 0
3426 6108 0
229 6108 0
-229 -3426 -6108 0
3520 6109 0
169 6109 0
-169 -3520 -6109 0
6107 6108 6109 -6110 0
-6107 -6108 6109 -6110 0
-6107 6108 -6109 -6110 0
6107 -6108 -6109 -6110 0
-6107 -6108 -6109 6110 0
6107 6108 -6109 6110 0
6107 -6108 6109 6110 0
-6107 6108 6109 6110 0
3518 6111 0
129 6111 0
-129 -3518 -6111 0
6106 6110 6111 -6112 0
-6106 -6110 6111 -6112 0
-6106 6110 -6111 -6112 0
6106 -6110 -6111 -6112 0
-6106 -6110 -6111 6112 0
6106 6110 -6111 6112 0
6106 -6110 6111 6112 0
-6106 6110 6111 6112 0
3521 6113 0
189 6113 0
-189 -3521 -6113 0
6105 6112 6113 -6114 0
-6105 -6112 6113 -6114 0
-6105 6112 -6113 -6114 0
6105 -6112 -6113 -6114 0
-6105 -6112 -6113 6114 0
6105 6112 -6113 6114 0
6105 -6112 6113 6114 0
-6105 6112 6113 6114 0
179 6104 6114 -6115 0
-179 -6104 6114 -6115 0
-179 6104 -6114 -6115 0
179 -6104 -6114 -6115 0
-179 -6104 -6114 6115 0
179 6104 -6114 6115 0
179 -6104 6114 6115 0
-179 6104 6114 6115 0
-172 -6115 0
-176 -6115 0
3401 -6115 0
3433 6116 0
240 6116 0
-3433 -240 -6116 0
3519 6117 0
140 6117 0
-3519 -140 -6117 0
3517 6118 0
120 6118 0
-3517 -120 -6118 0
3416 6119 0
220 6119 0
-3416 -220 -6119 0
3426 6120 0
230 6120 0
-230 -3426 -6120 0
3520 6121 0
170 6121 0
-170 -3520 -6121 0
6119 6120 6121 -6122 0
-6119 -6120 6121 -6122 0
-6119 6120 -6121 -6122 0
6119 -6120 -6121 -6122 0
-6119 -6120 -6121 6122 0
6119 6120 -6121 6122 0
6119 -6120 6121 6122 0
-6119 6120 6121 6122 0
3518 6123 0
130 6123 0
-130 -3518 -6123 0
6118 6122 6123 -6124 0
-6118 -6122 6123 -6124 0
-6118 6122 -6123 -6124 0
6118 -6122 -6123 -6124 0
-6118 -6122 -6123 6124 0
6118 6122 -6123 6124 0
6118 -6122 6123 6124 0
-6118 6122 6123 6124 0
3521 6125 0
190 6125 0
-190 -3521 -6125 0
6117 6124 6125 -6126 0
-6117 -6124 6125 -6126 0
-6117 6124 -6125 -6126 0
6117 -6124 -6125 -6126 0
-6117 -6124 -6125 6126 0
6117 6124 -6125 6126 0
6117 -6124 6125 6126 0
-6117 6124 6125 6126 0
180 6116 6126 -6127 0
-180 -6116 6126 -6127 0
-180 6116 -6126 -6127 0
180 -6116 -6126 -6127 0
-180 -6116 -6126 6127 0
180 6116 -6126 6127 0
180 -6116 6126 6127 0
-180 6116 6126 6127 0
-172 -6127 0
-176 -6127 0
3401 -6127 0
3526 6128 0
241 6128 0
-3526 -241 -6128 0
3381 6129 0
141 6129 0
-3381 -141 -6129 0
3523 6130 0
121 6130 0
-3523 -121 -6130 0
3424 6131 0
221 6131 0
-3424 -221 -6131 0
3434 6132 0
231 6132 0
-231 -3434 -6132 0
3525 6133 0
171 6133 0
-171 -3525 -6133 0
6131 6132 6133 -6134 0
-6131 -6132 6133 -6134 0
-6131 6132 -6133 -6134 0
6131 -6132 -6133 -6134 0
-6131 -6132 -6133 6134 0
6131 6132 -6133 6134 0
6131 -6132 6133 6134 0
-6131 6132 6133 6134 0
3524 6135 0
131 6135 0
-131 -3524 -6135 0
6130 6134 6135 -6136 0
-6130 -6134 6135 -6136 0
-6130 6134 -6135 -6136 0
6130 -6134 -6135 -6136 0
-6130 -6134 -6135 6136 0
6130 6134 -6135 6136 0
6130 -6134 6135 6136 0
-6130 6134 6135 6136 0
3412 6137 0
191 6137 0
-191 -3412 -6137 0
6129 6136 6137 -6138 0
-6129 -6136 6137 -6138 0
-6129 6136 -6137 -6138 0
6129 -6136 -6137 -6138 0
-6129 -6136 -6137 6138 0
6129 6136 -6137 6138 0
6129 -6136 6137 6138 0
-6129 6136 6137 6138 0
181 6128 6138 -6139 0
-181 -6128 6138 -6139 0
-181 6128 -6138 -6139 0
181 -6128 -6138 -6139 0
-181 -6128 -6138 6139 0
181 6128 -6138 6139 0
181 -6128 6138 6139 0
-181 6128 6138 6139 0
-182 -6139 0
-186 -6139 0
3405 -6139 0
3526 6140 0
247 6140 0
-3526 -247 -6140 0
3381 6141 0
147 6141 0
-3381 -147 -6141 0
3523 6142 0
127 6142 0
-3523 -127 -6142 0
3424 6143 0
227 6143 0
-3424 -227 -6143 0
3434 6144 0
237 6144 0
-237 -3434 -6144 0
3525 6145 0
177 6145 0
-177 -3525 -6145 0
6143 6144 6145 -6146 0
-6143 -6144 6145 -6146 0
-6143 6144 -6145 -6146 0
6143 -6144 -6145 -6146 0
-6143 -6144 -6145 6146 0
6143 6144 -6145 6146 0
6143 -6144 6145 6146 0
-6143 6144 6145 6146 0
3524 6147 0
137 6147 0
-137 -3524 -6147 0
6142 6146 6147 -6148 0
-6142 -6146 6147 -6148 0
-6142 6146 -6147 -6148 0
6142 -6146 -6147 -6148 0
-6142 -6146 -6147 6148 0
6142 6146 -6147 6148 0
6142 -6146 6147 6148 0
-6142 6146 6147 6148 0
3412 6149 0
197 6149 0
-197 -3412 -6149 0
6141 6148 6149 -6150 0
-6141 -6148 6149 -6150 0
-6141 6148 -6149 -6150 0
6141 -6148 -6149 -6150 0
-6141 -6148 -6149 6150 0
6141 6148 -6149 6150 0
6141 -6148 6149 6150 0
-6141 6148 6149 6150 0
187 6140 6150 -6151 0
-187 -6140 6150 -6151 0
-187 6140 -6150 -6151 0
187 -6140 -6150 -6151 0
-187 -6140 -6150 6151 0
187 6140 -6150 6151 0
187 -6140 6150 6151 0
-187 6140 6150 6151 0
-182 -6151 0
-186 -6151 0
3405 -6151 0
3526 6152 0
248 6152 0
-3526 -248 -6152 0
3381 6153 0
148 6153 0
-3381 -148 -6153 0
3523 6154 0
128 6154 0
-3523 -128 -6154 0
3424 6155 0
228 6155 0
-3424 -228 -6155 0
3434 6156 0
238 6156 0
-238 -3434 -6156 0
3525 6157 0
178 6157 0
-178 -3525 -6157 0
6155 6156 6157 -6158 0
-6155 -6156 6157 -6158 0
-6155 6156 -6157 -6158 0
6155 -6156 -6157 -6158 0
-6155 -6156 -6157 6158 0
6155 6156 -6157 6158 0
6155 -6156 6157 6158 0
-6155 6156 6157 6158 0
3524 6159 0
138 6159 0
-138 -3524 -6159 0
6154 6158 6159 -6160 0
-6154 -6158 6159 -6160 0
-6154 6158 -6159 -6160 0
6154 -6158 -6159 -6160 0
-6154 -6158 -6159 6160 0
6154 6158 -6159 6160 0
6154 -6158 6159 6160 0
-6154 6158 6159 6160 0
3412 6161 0
198 6161 0
-198 -3412 -6161 0
6153 6160 6161 -6162 0
-6153 -6160 6161 -6162 0
-6153 6160 -6161 -6162 0
6153 -6160 -6161 -6162 0
-6153 -6160 -6161 6162 0
6153 6160 -6161 6162 0
6153 -6160 6161 6162 0
-6153 6160 6161 6162 0
188 6152 6162 -6163 0
-188 -6152 6162 -6163 0
-188 6152 -6162 -6163 0
188 -6152 -6162 -6163 0
-188 -6152 -6162 6163 0
188 6152 -6162 6163 0
188 -6152 6162 6163 0
-188 6152 6162 6163 0
-182 -6163 0
-186 -6163 0
3405 -6163 0
3526 6164 0
249 6164 0
-3526 -249 -6164 0
3381 6165 0
149 6165 0
-3381 -149 -6165 0
3523 6166 0
129 6166 0
-3523 -129 -6166 0
3424 6167 0
229 6167 0
-3424 -229 -6167 0
3434 6168 0
239 6168 0
-239 -3434 -6168 0
3525 6169 0
179 6169 0
-179 -3525 -6169 0
6167 6168 6169 -6170 0
-6167 -6168 6169 -6170 0
-6167 6168 -6169 -6170 0
6167 -6168 -6169 -6170 0
-6167 -6168 -6169 6170 0
6167 6168 -6169 6170 0
6167 -6168 6169 6170 0
-6167 6168 6169 6170 0
3524 6171 0
139 6171 0
-139 -3524 -6171 0
6166 6170 6171 -6172 0
-6166 -6170 6171 -6172 0
-6166 6170 -6171 -6172 0
6166 -6170 -6171 -6172 0
-6166 -6170 -6171 6172 0
6166 6170 -6171 6172 0
6166 -6170 6171 6172 0
-6166 6170 6171 6172 0
3412 6173 0
199 6173 0
-199 -3412 -6173 0
6165 6172 6173 -6174 0
-6165 -6172 6173 -6174 0
-6165 6172 -6173 -6174 0
6165 -6172 -6173 -6174 0
-6165 -6172 -6173 6174 0
6165 6172 -6173 6174 0
6165 -6172 6173 6174 0
-6165 6172 6173 6174 0
189 6164 6174 -6175 0
-189 -6164 6174 -6175 0
-189 6164 -6174 -6175 0
189 -6164 -6174 -6175 0
-189 -6164 -6174 6175 0
189 6164 -6174 6175 0
189 -6164 6174 6175 0
-189 6164 6174 6175 0
-182 -6175 0
-186 -6175 0
3405 -6175 0
3526 6176 0
250 6176 0
-3526 -250 -6176 0
3381 6177 0
150 6177 0
-3381 -150 -6177 0
3523 6178 0
130 6178 0
-3523 -130 -6178 0
3424 6179 0
230 6179 0
-3424 -230 -6179 0
3434 6180 0
240 6180 0
-240 -3434 -6180 0
3525 6181 0
180 6181 0
-180 -3525 -6181 0
6179 6180 6181 -6182 0
-6179 -6180 6181 -6182 0
-6179 6180 -6181 -6182 0
6179 -6180 -6181 -6182 0
-6179 -6180 -6181 6182 0
6179 6180 -6181 6182 0
6179 -6180 6181 6182 0
-6179 6180 6181 6182 0
3524 6183 0
140 6183 0
-140 -3524 -6183 0
6178 6182 6183 -6184 0
-6178 -6182 6183 -6184 0
-6178 6182 -6183 -6184 0
6178 -6182 -6183 -6184 0
-6178 -6182 -6183 6184 0
6178 6182 -6183 6184 0
6178 -6182 6183 6184 0
-6178 6182 6183 6184 0
3412 6185 0
200 6185 0
-200 -3412 -6185 0
6177 6184 6185 -6186 0
-6177 -6184 6185 -6186 0
-6177 6184 -6185 -6186 0
6177 -6184 -6185 -6186 0
-6177 -6184 -6185 6186 0
6177 6184 -6185 6186 0
6177 -6184 6185 6186 0
-6177 6184 6185 6186 0
190 6176 6186 -6187 0
-190 -6176 6186 -6187 0
-190 6176 -6186 -6187 0
190 -6176 -6186 -6187 0
-190 -6176 -6186 6187 0
190 6176 -6186 6187 0
190 -6176 6186 6187 0
-190 6176 6186 6187 0
-182 -6187 0
-186 -6187 0
3405 -6187 0
3528 6188 0
131 6188 0
-3528 -131 -6188 0
3432 6189 0
231 6189 0
-3432 -231 -6189 0
3530 6190 0
241 6190 0
-241 -3530 -6190 0
-6189 6190 -6191 0
6189 -6190 -6191 0
-6189 -6190 6191 0
6189 6190 6191 0
3529 6192 0
181 6192 0
-181 -3529 -6192 0
6188 6191 6192 -6193 0
-6188 -6191 6192 -6193 0
-6188 6191 -6192 -6193 0
6188 -6191 -6192 -6193 0
-6188 -6191 -6192 6193 0
6188 6191 -6192 6193 0
6188 -6191 6192 6193 0
-6188 6191 6192 6193 0
3383 6194 0
141 6194 0
-141 -3383 -6194 0
191 6193 6194 -6195 0
-191 -6193 6194 -6195 0
-191 6193 -6194 -6195 0
191 -6193 -6194 -6195 0
-191 -6193 -6194 6195 0
191 6193 -6194 6195 0
191 -6193 6194 6195 0
-191 6193 6194 6195 0
-192 -6195 0
-196 -6195 0
3413 -6195 0
3528 6196 0
137 6196 0
-3528 -137 -6196 0
3432 6197 0
237 6197 0
-3432 -237 -6197 0
3530 6198 0
247 6198 0
-247 -3530 -6198 0
-6197 6198 -6199 0
6197 -6198 -6199 0
-6197 -6198 6199 0
6197 6198 6199 0
3529 6200 0
187 6200 0
-187 -3529 -6200 0
6196 6199 6200 -6201 0
-6196 -6199 6200 -6201 0
-6196 6199 -6200 -6201 0
6196 -6199 -6200 -6201 0
-6196 -6199 -6200 6201 0
6196 6199 -6200 6201 0
6196 -6199 6200 6201 0
-6196 6199 6200 6201 0
3383 6202 0
147 6202 0
-147 -3383 -6202 0
197 6201 6202 -6203 0
-197 -6201 6202 -6203 0
-197 6201 -6202 -6203 0
197 -6201 -6202 -6203 0
-197 -6201 -6202 6203 0
197 6201 -6202 6203 0
197 -6201 6202 6203 0
-197 6201 6202 6203 0
-192 -6203 0
-196 -6203 0
3413 -6203 0
3528 6204 0
138 6204 0
-3528 -138 -6204 0
3432 6205 0
238 6205 0
-3432 -238 -6205 0
3530 6206 0
248 6206 0
-248 -3530 -6206 0
-6205 6206 -6207 0
6205 -6206 -6207 0
-6205 -6206 6207 0
6205 6206 6207 0
3529 6208 0
188 6208 0
-188 -3529 -6208 0
6204 6207 6208 -6209 0
-6204 -6207 6208 -6209 0
-6204 6207 -6208 -6209 0
6204 -6207 -6208 -6209 0
-6204 -6207 -6208 6209 0
6204 6207 -6208 6209 0
6204 -6207 6208 6209 0
-6204 6207 6208 6209 0
3383 6210 0
148 6210 0
-148 -3383 -6210 0
198 6209 6210 -6211 0
-198 -6209 6210 -6211 0
-198 6209 -6210 -6211 0
198 -6209 -6210 -6211 0
-198 -6209 -6210 6211 0
198 6209 -6210 6211 0
198 -6209 6210 6211 0
-198 6209 6210 6211 0
-192 -6211 0
-196 -6211 0
3413 -6211 0
3528 6212 0
139 6212 0
-3528 -139 -6212 0
3432 6213 0
239 6213 0
-3432 -239 -6213 0
3530 6214 0
249 6214 0
-249 -3530 -6214 0
-6213 6214 -6215 0
6213 -6214 -6215 0
-6213 -6214 6215 0
6213 6214 6215 0
3529 6216 0
189 6216 0
-189 -3529 -6216 0
6212 6215 6216 -6217 0
-6212 -6215 6216 -6217 0
-6212 6215 -6216 -6217 0
6212 -6215 -6216 -6217 0
-6212 -6215 -6216 6217 0
6212 6215 -6216 6217 0
6212 -6215 6216 6217 0
-6212 6215 6216 6217 0
3383 6218 0
149 6218 0
-149 -3383 -6218 0
199 6217 6218 -6219 0
-199 -6217 6218 -6219 0
-199 6217 -6218 -6219 0
199 -6217 -6218 -6219 0
-199 -6217 -6218 6219 0
199 6217 -6218 6219 0
199 -6217 6218 6219 0
-199 6217 6218 6219 0
-192 -6219 0
-196 -6219 0
3413 -6219 0
3528 6220 0
140 6220 0
-3528 -140 -6220 0
3432 6221 0
240 6221 0
-3432 -240 -6221 0
3530 6222 0
250 6222 0
-250 -3530 -6222 0
-6221 6222 -6223 0
6221 -6222 -6223 0
-6221 -6222 6223 0
6221 6222 6223 0
3529 6224 0
190 6224 0
-190 -3529 -6224 0
6220 6223 6224 -6225 0
-6220 -6223 6224 -6225 0
-6220 6223 -6224 -6225 0
6220 -6223 -6224 -6225 0
-6220 -6223 -6224 6225 0
6220 6223 -6224 6225 0
6220 -6223 6224 6225 0
-6220 6223 6224 6225 0
3383 6226 0
150 6226 0
-150 -3383 -6226 0
200 6225 6226 -6227 0
-200 -6225 6226 -6227 0
-200 6225 -6226 -6227 0
200 -6225 -6226 -6227 0
-200 -6225 -6226 6227 0
200 6225 -6226 6227 0
200 -6225 6226 6227 0
-200 6225 6226 6227 0
-192 -6227 0
-196 -6227 0
3413 -6227 0
3533 6228 0
161 6228 0
-3533 -161 -6228 0
3392 6229 0
151 6229 0
-151 -3392 -6229 0
-6228 6229 -6230 0
6228 -6229 -6230 0
-6228 -6229 6230 0
6228 6229 6230 0
3420 6231 0
211 6231 0
-211 -3420 -6231 0
201 6230 6231 -6232 0
-201 -6230 6231 -6232 0
-201 6230 -6231 -6232 0
201 -6230 -6231 -6232 0
-201 -6230 -6231 6232 0
201 6230 -6231 6232 0
201 -6230 6231 6232 0
-201 6230 6231 6232 0
203 6233 0
204 205 6233 0
-204 -203 -6233 0
-205 -203 -6233 0
-202 -6232 0
-206 -6232 0
6233 -6232 0
3533 6234 0
167 6234 0
-3533 -167 -6234 0
3392 6235 0
157 6235 0
-157 -3392 -6235 0
-6234 6235 -6236 0
6234 -6235 -6236 0
-6234 -6235 6236 0
6234 6235 6236 0
3420 6237 0
217 6237 0
-217 -3420 -6237 0
207 6236 6237 -6238 0
-207 -6236 6237 -6238 0
-207 6236 -6237 -6238 0
207 -6236 -6237 -6238 0
-207 -6236 -6237 6238 0
207 6236 -6237 6238 0
207 -6236 6237 6238 0
-207 6236 6237 6238 0
-202 -6238 0
-206 -6238 0
6233 -6238 0
3533 6239 0
168 6239 0
-3533 -168 -6239 0
3392 6240 0
158 6240 0
-158 -3392 -6240 0
-6239 6240 -6241 0
6239 -6240 -6241 0
-6239 -6240 6241 0
6239 6240 6241 0
3420 6242 0
218 6242 0
-218 -3420 -6242 0
208 6241 6242 -6243 0
-208 -6241 6242 -6243 0
-208 6241 -6242 -6243 0
208 -6241 -6242 -6243 0
-208 -6241 -6242 6243 0
208 6241 -6242 6243 0
208 -6241 6242 6243 0
-208 6241 6242 6243 0
-202 -6243 0
-206 -6243 0
6233 -6243 0
3533 6244 0
169 6244 0
-3533 -169 -6244 0
3392 6245 0
159 6245 0
-159 -3392 -6245 0
-6244 6245 -6246 0
6244 -6245 -6246 0
-6244 -6245 6246 0
6244 6245 6246 0
3420 6247 0
219 6247 0
-219 -3420 -6247 0
209 6246 6247 -6248 0
-209 -6246 6247 -6248 0
-209 6246 -6247 -6248 0
209 -6246 -6247 -6248 0
-209 -6246 -6247 6248 0
209 6246 -6247 6248 0
209 -6246 6247 6248 0
-209 6246 6247 6248 0
-202 -6248 0
-206 -6248 0
6233 -6248 0
3533 6249 0
170 6249 0
-3533 -170 -6249 0
3392 6250 0
160 6250 0
-160 -3392 -6250 0
-6249 6250 -6251 0
6249 -6250 -6251 0
-6249 -6250 6251 0
6249 6250 6251 0
3420 6252 0
220 6252 0
-220 -3420 -6252 0
210 6251 6252 -6253 0
-210 -6251 6252 -6253 0
-210 6251 -6252 -6253 0
210 -6251 -6252 -6253 0
-210 -6251 -6252 6253 0
210 6251 -6252 6253 0
210 -6251 6252 6253 0
-210 6251 6252 6253 0
-202 -6253 0
-206 -6253 0
6233 -6253 0
3535 6254 0
171 6254 0
-3535 -171 -6254 0
3389 6255 0
151 6255 0
-3389 -151 -6255 0
3536 6256 0
201 6256 0
-201 -3536 -6256 0
-6255 6256 -6257 0
6255 -6256 -6257 0
-6255 -6256 6257 0
6255 6256 6257 0
3534 6258 0
161 6258 0
-161 -3534 -6258 0
6254 6257 6258 -6259 0
-6254 -6257 6258 -6259 0
-6254 6257 -6258 -6259 0
6254 -6257 -6258 -6259 0
-6254 -6257 -6258 6259 0
6254 6257 -6258 6259 0
6254 -6257 6258 6259 0
-6254 6257 6258 6259 0
3428 6260 0
221 6260 0
-221 -3428 -6260 0
211 6259 6260 -6261 0
-211 -6259 6260 -6261 0
-211 6259 -6260 -6261 0
211 -6259 -6260 -6261 0
-211 -6259 -6260 6261 0
211 6259 -6260 6261 0
211 -6259 6260 6261 0
-211 6259 6260 6261 0
-212 -6261 0
-216 -6261 0
3421 -6261 0
3535 6262 0
177 6262 0
-3535 -177 -6262 0
3389 6263 0
157 6263 0
-3389 -157 -6263 0
3536 6264 0
207 6264 0
-207 -3536 -6264 0
-6263 6264 -6265 0
6263 -6264 -6265 0
-6263 -6264 6265 0
6263 6264 6265 0
3534 6266 0
167 6266 0
-167 -3534 -6266 0
6262 6265 6266 -6267 0
-6262 -6265 6266 -6267 0
-6262 6265 -6266 -6267 0
6262 -6265 -6266 -6267 0
-6262 -6265 -6266 6267 0
6262 6265 -6266 6267 0
6262 -6265 6266 6267 0
-6262 6265 6266 6267 0
3428 6268 0
227 6268 0
-227 -3428 -6268 0
217 6267 6268 -6269 0
-217 -6267 6268 -6269 0
-217 6267 -6268 -6269 0
217 -6267 -6268 -6269 0
-217 -6267 -6268 6269 0
217 6267 -6268 6269 0
217 -6267 6268 6269 0
-217 6267 6268 6269 0
-212 -6269 0
-216 -6269 0
3421 -6269 0
3535 6270 0
178 6270 0
-3535 -178 -6270 0
3389 6271 0
158 6271 0
-3389 -158 -6271 0
3536 6272 0
208 6272 0
-208 -3536 -6272 0
-6271 6272 -6273 0
6271 -6272 -6273 0
-6271 -6272 6273 0
6271 6272 6273 0
3534 6274 0
168 6274 0
-168 -3534 -6274 0
6270 6273 6274 -6275 0
-6270 -6273 6274 -6275 0
-6270 6273 -6274 -6275 0
6270 -6273 -6274 -6275 0
-6270 -6273 -6274 6275 0
6270 6273 -6274 6275 0
6270 -6273 6274 6275 0
-6270 6273 6274 6275 0
3428 6276 0
228 6276 0
-228 -3428 -6276 0
218 6275 6276 -6277 0
-218 -6275 6276 -6277 0
-218 6275 -6276 -6277 0
218 -6275 -6276 -6277 0
-218 -6275 -6276 6277 0
218 6275 -6276 6277 0
218 -6275 6276 6277 0
-218 6275 6276 6277 0
-212 -6277 0
-216 -6277 0
3421 -6277 0
3535 6278 0
179 6278 0
-3535 -179 -6278 0
3389 6279 0
159 6279 0
-3389 -159 -6279 0
3536 6280 0
209 6280 0
-209 -3536 -6280 0
-6279 6280 -6281 0
6279 -6280 -6281 0
-6279 -6280 6281 0
6279 6280 6281 0
3534 6282 0
169 6282 0
-169 -3534 -6282 0
6278 6281 6282 -6283 0
-6278 -6281 6282 -6283 0
-6278 6281 -6282 -6283 0
6278 -6281 -6282 -6283 0
-6278 -6281 -6282 6283 0
6278 6281 -6282 6283 0
6278 -6281 6282 6283 0
-6278 6281 6282 6283 0
3428 6284 0
229 6284 0
-229 -3428 -6284 0
219 6283 6284 -6285 0
-219 -6283 6284 -6285 0
-219 6283 -6284 -6285 0
219 -6283 -6284 -6285 0
-219 -6283 -6284 6285 0
219 6283 -6284 6285 0
219 -6283 6284 6285 0
-219 6283 6284 6285 0
-212 -6285 0
-216 -6285 0
3421 -6285 0
3535 6286 0
180 6286 0
-3535 -180 -6286 0
3389 6287 0
160 6287 0
-3389 -160 -6287 0
3536 6288 0
210 6288 0
-210 -3536 -6288 0
-6287 6288 -6289 0
6287 -6288 -6289 0
-6287 -6288 6289 0
6287 6288 6289 0
3534 6290 0
170 6290 0
-170 -3534 -6290 0
6286 6289 6290 -6291 0
-6286 -6289 6290 -6291 0
-6286 6289 -6290 -6291 0
6286 -6289 -6290 -6291 0
-6286 -6289 -6290 6291 0
6286 6289 -6290 6291 0
6286 -6289 6290 6291 0
-6286 6289 6290 6291 0
3428 6292 0
230 6292 0
-230 -3428 -6292 0
220 6291 6292 -6293 0
-220 -6291 6292 -6293 0
-220 6291 -6292 -6293 0
220 -6291 -6292 -6293 0
-220 -6291 -6292 6293 0
220 6291 -6292 6293 0
220 -6291 6292 6293 0
-220 6291 6292 6293 0
-212 -6293 0
-216 -6293 0
3421 -6293 0
3540 6294 0
181 6294 0
-3540 -181 -6294 0
3538 6295 0
161 6295 0
-3538 -161 -6295 0
3419 6296 0
211 6296 0
-211 -3419 -6296 0
-6295 6296 -6297 0
6295 -6296 -6297 0
-6295 -6296 6297 0
6295 6296 6297 0
3539 6298 0
171 6298 0
-171 -3539 -6298 0
6294 6297 6298 -6299 0
-6294 -6297 6298 -6299 0
-6294 6297 -6298 -6299 0
6294 -6297 -6298 -6299 0
-6294 -6297 -6298 6299 0
6294 6297 -6298 6299 0
6294 -6297 6298 6299 0
-6294 6297 6298 6299 0
3436 6300 0
231 6300 0
-231 -3436 -6300 0
221 6299 6300 -6301 0
-221 -6299 6300 -6301 0
-221 6299 -6300 -6301 0
221 -6299 -6300 -6301 0
-221 -6299 -6300 6301 0
221 6299 -6300 6301 0
221 -6299 6300 6301 0
-221 6299 6300 6301 0
-222 -6301 0
-226 -6301 0
3429 -6301 0
3540 6302 0
187 6302 0
-3540 -187 -6302 0
3538 6303 0
167 6303 0
-3538 -167 -6303 0
3419 6304 0
217 6304 0
-217 -3419 -6304 0
-6303 6304 -6305 0
6303 -6304 -6305 0
-6303 -6304 6305 0
6303 6304 6305 0
3539 6306 0
177 6306 0
-177 -3539 -6306 0
6302 6305 6306 -6307 0
-6302 -6305 6306 -6307 0
-6302 6305 -6306 -6307 0
6302 -6305 -6306 -6307 0
-6302 -6305 -6306 6307 0
6302 6305 -6306 6307 0
6302 -6305 6306 6307 0
-6302 6305 6306 6307 0
3436 6308 0
237 6308 0
-237 -3436 -6308 0
227 6307 6308 -6309 0
-227 -6307 6308 -6309 0
-227 6307 -6308 -6309 0
227 -6307 -6308 -6309 0
-227 -6307 -6308 6309 0
227 6307 -6308 6309 0
227 -6307 6308 6309 0
-227 6307 6308 6309 0
-222 -6309 0
-226 -6309 0
3429 -6309 0
3540 6310 0
188 6310 0
-3540 -188 -6310 0
3538 6311 0
168 6311 0
-3538 -168 -6311 0
3419 6312 0
218 6312 0
-218 -3419 -6312 0
-6311 6312 -6313 0
6311 -6312 -6313 0
-6311 -6312 6313 0
6311 6312 6313 0
3539 6314 0
178 6314 0
-178 -3539 -6314 0
6310 6313 6314 -6315 0
-6310 -6313 6314 -6315 0
-6310 6313 -6314 -6315 0
6310 -6313 -6314 -6315 0
-6310 -6313 -6314 6315 0
6310 6313 -6314 6315 0
6310 -6313 6314 6315 0
-6310 6313 6314 6315 0
3436 6316 0
238 6316 0
-238 -3436 -6316 0
228 6315 6316 -6317 0
-228 -6315 6316 -6317 0
-228 6315 -6316 -6317 0
228 -6315 -6316 -6317 0
-228 -6315 -6316 6317 0
228 6315 -6316 6317 0
228 -6315 6316 6317 0
-228 6315 6316 6317 0
-222 -6317 0
-226 -6317 0
3429 -6317 0
3540 6318 0
189 6318 0
-3540 -189 -6318 0
3538 6319 0
169 6319 0
-3538 -169 -6319 0
3419 6320 0
219 6320 0
-219 -3419 -6320 0
-6319 6320 -6321 0
6319 -6320 -6321 0
-6319 -6320 6321 0
6319 6320 6321 0
3539 6322 0
179 6322 0
-179 -3539 -6322 0
6318 6321 6322 -6323 0
-6318 -6321 6322 -6323 0
-6318 6321 -6322 -6323 0
6318 -6321 -6322 -6323 0
-6318 -6321 -6322 6323 0
6318 6321 -6322 6323 0
6318 -6321 6322 6323 0
-6318 6321 6322 6323 0
3436 6324 0
239 6324 0
-239 -3436 -6324 0
229 6323 6324 -6325 0
-229 -6323 6324 -6325 0
-229 6323 -6324 -6325 0
229 -6323 -6324 -6325 0
-229 -6323 -6324 6325 0
229 6323 -6324 6325 0
229 -6323 6324 6325 0
-229 6323 6324 6325 0
-222 -6325 0
-226 -6325 0
3429 -6325 0
3540 6326 0
190 6326 0
-3540 -190 -6326 0
3538 6327 0
170 6327 0
-3538 -170 -6327 0
3419 6328 0
220 6328 0
-220 -3419 -6328 0
-6327 6328 -6329 0
6327 -6328 -6329 0
-6327 -6328 6329 0
6327 6328 6329 0
3539 6330 0
180 6330 0
-180 -3539 -6330 0
6326 6329 6330 -6331 0
-6326 -6329 6330 -6331 0
-6326 6329 -6330 -6331 0
6326 -6329 -6330 -6331 0
-6326 -6329 -6330 6331 0
6326 6329 -6330 6331 0
6326 -6329 6330 6331 0
-6326 6329 6330 6331 0
3436 6332 0
240 6332 0
-240 -3436 -6332 0
230 6331 6332 -6333 0
-230 -6331 6332 -6333 0
-230 6331 -6332 -6333 0
230 -6331 -6332 -6333 0
-230 -6331 -6332 6333 0
230 6331 -6332 6333 0
230 -6331 6332 6333 0
-230 6331 6332 6333 0
-222 -6333 0
-226 -6333 0
3429 -6333 0
3409 6334 0
191 6334 0
-3409 -191 -6334 0
3542 6335 0
171 6335 0
-3542 -171 -6335 0
3427 6336 0
221 6336 0
-221 -3427 -6336 0
-6335 6336 -6337 0
6335 -6336 -6337 0
-6335 -6336 6337 0
6335 6336 6337 0
3543 6338 0
181 6338 0
-181 -3543 -6338 0
6334 6337 6338 -6339 0
-6334 -6337 6338 -6339 0
-6334 6337 -6338 -6339 0
6334 -6337 -6338 -6339 0
-6334 -6337 -6338 6339 0
6334 6337 -6338 6339 0
6334 -6337 6338 6339 0
-6334 6337 6338 6339 0
3544 6340 0
241 6340 0
-241 -3544 -6340 0
231 6339 6340 -6341 0
-231 -6339 6340 -6341 0
-231 6339 -6340 -6341 0
231 -6339 -6340 -6341 0
-231 -6339 -6340 6341 0
231 6339 -6340 6341 0
231 -6339 6340 6341 0
-231 6339 6340 6341 0
-232 -6341 0
-236 -6341 0
3437 -6341 0
3409 6342 0
197 6342 0
-3409 -197 -6342 0
3542 6343 0
177 6343 0
-3542 -177 -6343 0
3427 6344 0
227 6344 0
-227 -3427 -6344 0
-6343 6344 -6345 0
6343 -6344 -6345 0
-6343 -6344 6345 0
6343 6344 6345 0
3543 6346 0
187 6346 0
-187 -3543 -6346 0
6342 6345 6346 -6347 0
-6342 -6345 6346 -6347 0
-6342 6345 -6346 -6347 0
6342 -6345 -6346 -6347 0
-6342 -6345 -6346 6347 0
6342 6345 -6346 6347 0
6342 -6345 6346 6347 0
-6342 6345 6346 6347 0
3544 6348 0
247 6348 0
-247 -3544 -6348 0
237 6347 6348 -6349 0
-237 -6347 6348 -6349 0
-237 6347 -6348 -6349 0
237 -6347 -6348 -6349 0
-237 -6347 -6348 6349 0
237 6347 -6348 6349 0
237 -6347 6348 6349 0
-237 6347 6348 6349 0
-232 -6349 0
-236 -6349 0
3437 -6349 0
3409 6350 0
198 6350 0
-3409 -198 -6350 0
3542 6351 0
178 6351 0
-3542 -178 -6351 0
3427 6352 0
228 6352 0
-228 -3427 -6352 0
-6351 6352 -6353 0
6351 -6352 -6353 0
-6351 -6352 6353 0
6351 6352 6353 0
3543 6354 0
188 6354 0
-188 -3543 -6354 0
6350 6353 6354 -6355 0
-6350 -6353 6354 -6355 0
-6350 6353 -6354 -6355 0
6350 -6353 -6354 -6355 0
-6350 -6353 -6354 6355 0
6350 6353 -6354 6355 0
6350 -6353 6354 6355 0
-6350 6353 6354 6355 0
3544 6356 0
248 6356 0
-248 -3544 -6356 0
238 6355 6356 -6357 0
-238 -6355 6356 -6357 0
-238 6355 -6356 -6357 0
238 -6355 -6356 -6357 0
-238 -6355 -6356 6357 0
238 6355 -6356 6357 0
238 -6355 6356 6357 0
-238 6355 6356 6357 0
-232 -6357 0
-236 -6357 0
3437 -6357 0
3409 6358 0
199 6358 0
-3409 -199 -6358 0
3542 6359 0
179 6359 0
-3542 -179 -6359 0
3427 6360 0
229 6360 0
-229 -3427 -6360 0
-6359 6360 -6361 0
6359 -6360 -6361 0
-6359 -6360 6361 0
6359 6360 6361 0
3543 6362 0
189 6362 0
-189 -3543 -6362 0
6358 6361 6362 -6363 0
-6358 -6361 6362 -6363 0
-6358 6361 -6362 -6363 0
6358 -6361 -6362 -6363 0
-6358 -6361 -6362 6363 0
6358 6361 -6362 6363 0
6358 -6361 6362 6363 0
-6358 6361 6362 6363 0
3544 6364 0
249 6364 0
-249 -3544 -6364 0
239 6363 6364 -6365 0
-239 -6363 6364 -6365 0
-239 6363 -6364 -6365 0
239 -6363 -6364 -6365 0
-239 -6363 -6364 6365 0
239 6363 -6364 6365 0
239 -6363 6364 6365 0
-239 6363 6364 6365 0
-232 -6365 0
-236 -6365 0
3437 -6365 0
3409 6366 0
200 6366 0
-3409 -200 -6366 0
3542 6367 0
180 6367 0
-3542 -180 -6367 0
3427 6368 0
230 6368 0
-230 -3427 -6368 0
-6367 6368 -6369 0
6367 -6368 -6369 0
-6367 -6368 6369 0
6367 6368 6369 0
3543 6370 0
190 6370 0
-190 -3543 -6370 0
6366 6369 6370 -6371 0
-6366 -6369 6370 -6371 0
-6366 6369 -6370 -6371 0
6366 -6369 -6370 -6371 0
-6366 -6369 -6370 6371 0
6366 6369 -6370 6371 0
6366 -6369 6370 6371 0
-6366 6369 6370 6371 0
3544 6372 0
250 6372 0
-250 -3544 -6372 0
240 6371 6372 -6373 0
-240 -6371 6372 -6373 0
-240 6371 -6372 -6373 0
240 -6371 -6372 -6373 0
-240 -6371 -6372 6373 0
240 6371 -6372 6373 0
240 -6371 6372 6373 0
-240 6371 6372 6373 0
-232 -6373 0
-236 -6373 0
3437 -6373 0
3547 6374 0
181 6374 0
-3547 -181 -6374 0
3435 6375 0
231 6375 0
-231 -3435 -6375 0
-6374 6375 -6376 0
6374 -6375 -6376 0
-6374 -6375 6376 0
6374 6375 6376 0
3411 6377 0
191 6377 0
-191 -3411 -6377 0
241 6376 6377 -6378 0
-241 -6376 6377 -6378 0
-241 6376 -6377 -6378 0
241 -6376 -6377 -6378 0
-241 -6376 -6377 6378 0
241 6376 -6377 6378 0
241 -6376 6377 6378 0
-241 6376 6377 6378 0
243 6379 0
244 245 6379 0
-244 -243 -6379 0
-245 -243 -6379 0
-242 -6378 0
-246 -6378 0
6379 -6378 0
3547 6380 0
187 6380 0
-3547 -187 -6380 0
3435 6381 0
237 6381 0
-237 -3435 -6381 0
-6380 6381 -6382 0
6380 -6381 -6382 0
-6380 -6381 6382 0
6380 6381 6382 0
3411 6383 0
197 6383 0
-197 -3411 -6383 0
247 6382 6383 -6384 0
-247 -6382 6383 -6384 0
-247 6382 -6383 -6384 0
247 -6382 -6383 -6384 0
-247 -6382 -6383 6384 0
247 6382 -6383 6384 0
247 -6382 6383 6384 0
-247 6382 6383 6384 0
-242 -6384 0
-246 -6384 0
6379 -6384 0
3547 6385 0
188 6385 0
-3547 -188 -6385 0
3435 6386 0
238 6386 0
-238 -3435 -6386 0
-6385 6386 -6387 0
6385 -6386 -6387 0
-6385 -6386 6387 0
6385 6386 6387 0
3411 6388 0
198 6388 0
-198 -3411 -6388 0
248 6387 6388 -6389 0
-248 -6387 6388 -6389 0
-248 6387 -6388 -6389 0
248 -6387 -6388 -6389 0
-248 -6387 -6388 6389 0
248 6387 -6388 6389 0
248 -6387 6388 6389 0
-248 6387 6388 6389 0
-242 -6389 0
-246 -6389 0
6379 -6389 0
3547 6390 0
189 6390 0
-3547 -189 -6390 0
3435 6391 0
239 6391 0
-239 -3435 -6391 0
-6390 6391 -6392 0
6390 -6391 -6392 0
-6390 -6391 6392 0
6390 6391 6392 0
3411 6393 0
199 6393 0
-199 -3411 -6393 0
249 6392 6393 -6394 0
-249 -6392 6393 -6394 0
-249 6392 -6393 -6394 0
249 -6392 -6393 -6394 0
-249 -6392 -6393 6394 0
249 6392 -6393 6394 0
249 -6392 6393 6394 0
-249 6392 6393 6394 0
-242 -6394 0
-246 -6394 0
6379 -6394 0
3547 6395 0
190 6395 0
-3547 -190 -6395 0
3435 6396 0
240 6396 0
-240 -3435 -6396 0
-6395 6396 -6397 0
6395 -6396 -6397 0
-6395 -6396 6397 0
6395 6396 6397 0
3411 6398 0
200 6398 0
-200 -3411 -6398 0
250 6397 6398 -6399 0
-250 -6397 6398 -6399 0
-250 6397 -6398 -6399 0
250 -6397 -6398 -6399 0
-250 -6397 -6398 6399 0
250 6397 -6398 6399 0
250 -6397 6398 6399 0
-250 6397 6398 6399 0
-242 -6399 0
-246 -6399 0
6379 -6399 0
-3441 -3320 0
-3441 -3443 0
-3320 -3332 0
-3332 -3320 0
-3332 -3443 0
-3443 -3441 0
-3310 -3328 0
-3310 -3447 0
-3328 -3445 0
-3445 -3328 0
-3445 -3447 0
-3447 -3310 0
-3318 -3449 0
-3318 -3352 0
-3449 -3450 0
-3450 -3449 0
-3450 -3352 0
-3352 -3318 0
-3455 -3362 0
-3308 -3362 0
-3455 -3457 0
-3308 -3457 0
-3457 -3455 0
-3459 -3461 0
-3311 -3461 0
-3316 -3461 0
-3316 -3335 0
-3335 -3460 0
-3335 -3462 0
-3311 -3462 0
-3311 -3360 0
-3460 -3360 0
-3459 -3460 0
-3459 -3360 0
-3360 -3311 0
-3316 -3360 0
-3360 -3460 0
-3360 -3462 0
-3459 -3316 0
-3459 -3462 0
-3316 -3462 0
-3316 -3459 0
-3462 -3335 0
-3462 -3311 0
-3309 -3467 0
-3319 -3467 0
-3324 -3467 0
-3324 -3464 0
-3464 -3465 0
-3464 -3468 0
-3319 -3468 0
-3319 -3466 0
-3465 -3466 0
-3309 -3465 0
-3309 -3466 0
-3466 -3319 0
-3324 -3466 0
-3466 -3465 0
-3466 -3468 0
-3309 -3324 0
-3309 -3468 0
-3324 -3468 0
-3324 -3309 0
-3468 -3464 0
-3468 -3319 0
-3317 -3473 0
-3327 -3473 0
-3470 -3473 0
-3470 -3471 0
-3471 -3356 0
-3471 -3380 0
-3327 -3380 0
-3327 -3472 0
-3356 -3472 0
-3317 -3356 0
-3317 -3472 0
-3472 -3327 0
-3470 -3472 0
-3472 -3356 0
-3472 -3380 0
-3317 -3470 0
-3317 -3380 0
-3470 -3380 0
-3470 -3317 0
-3380 -3471 0
-3380 -3327 0
-3325 -3382 0
-3475 -3382 0
-3475 -3477 0
-3325 -3477 0
-3477 -3475 0
-3336 -3390 0
-3479 -3390 0
-3336 -3481 0
-3479 -3481 0
-3481 -3336 0
-3333 -3486 0
-3483 -3486 0
-3484 -3486 0
-3484 -3363 0
-3363 -3485 0
-3363 -3487 0
-3483 -3487 0
-3483 -3388 0
-3485 -3388 0
-3333 -3485 0
-3333 -3388 0
-3388 -3483 0
-3484 -3388 0
-3388 -3485 0
-3388 -3487 0
-3333 -3484 0
-3333 -3487 0
-3484 -3487 0
-3484 -3333 0
-3487 -3363 0
-3487 -3483 0
-3489 -3495 0
-3490 -3495 0
-3491 -3495 0
-3491 -3492 0
-3492 -3493 0
-3492 -3496 0
-3490 -3496 0
-3490 -3494 0
-3493 -3494 0
-3489 -3493 0
-3489 -3494 0
-3494 -3490 0
-3491 -3494 0
-3494 -3493 0
-3494 -3496 0
-3489 -3491 0
-3489 -3496 0
-3491 -3496 0
-3491 -3489 0
-3496 -3492 0
-3496 -3490 0
-3498 -3502 0
-3499 -3502 0
-3353 -3502 0
-3353 -3500 0
-3500 -3384 0
-3500 -3408 0
-3499 -3408 0
-3499 -3501 0
-3384 -3501 0
-3498 -3384 0
-3498 -3501 0
-3501 -3499 0
-3353 -3501 0
-3501 -3384 0
-3501 -3408 0
-3498 -3353 0
-3498 -3408 0
-3353 -3408 0
-3353 -3498 0
-3408 -3500 0
-3408 -3499 0
-3504 -3410 0
-3355 -3410 0
-3355 -3506 0
-3504 -3506 0
-3506 -3355 0
-3364 -3510 0
-3508 -3510 0
-3364 -3417 0
-3508 -3417 0
-3417 -3364 0
-3361 -3418 0
-3512 -3418 0
-3513 -3418 0
-3513 -3391 0
-3391 -3514 0
-3391 -3425 0
-3512 -3425 0
-3512 -3515 0
-3514 -3515 0
-3361 -3514 0
-3361 -3515 0
-3515 -3512 0
-3513 -3515 0
-3515 -3514 0
-3515 -3425 0
-3361 -3513 0
-3361 -3425 0
-3513 -3425 0
-3513 -3361 0
-3425 -3391 0
-3425 -3512 0
-3517 -3426 0
-3518 -3426 0
-3519 -3426 0
-3519 -3520 0
-3520 -3521 0
-3520 -3433 0
-3518 -3433 0
-3518 -3416 0
-3521 -3416 0
-3517 -3521 0
-3517 -3416 0
-3416 -3518 0
-3519 -3416 0
-3416 -3521 0
-3416 -3433 0
-3517 -3519 0
-3517 -3433 0
-3519 -3433 0
-3519 -3517 0
-3433 -3520 0
-3433 -3518 0
-3523 -3434 0
-3524 -3434 0
-3381 -3434 0
-3381 -3525 0
-3525 -3412 0
-3525 -3526 0
-3524 -3526 0
-3524 -3424 0
-3412 -3424 0
-3523 -3412 0
-3523 -3424 0
-3424 -3524 0
-3381 -3424 0
-3424 -3412 0
-3424 -3526 0
-3523 -3381 0
-3523 -3526 0
-3381 -3526 0
-3381 -3523 0
-3526 -3525 0
-3526 -3524 0
-3528 -3530 0
-3383 -3530 0
-3383 -3432 0
-3528 -3432 0
-3432 -3383 0
-3535 -3536 0
-3536 -3428 0
-3389 -3428 0
-3389 -3535 0
-3535 -3389 0
-3540 -3419 0
-3419 -3436 0
-3538 -3436 0
-3538 -3540 0
-3540 -3538 0
-3409 -3427 0
-3427 -3544 0
-3542 -3544 0
-3542 -3409 0
-3409 -3542 0
-3459 -3308 0
-3459 -3332 0
-3309 -3316 0
-3309 -3445 0
-3308 -3459 0
-3308 -3440 0
-3317 -3324 0
-3317 -3450 0
-3316 -3309 0
-3316 -3443 0
-3325 -3470 0
-3325 -3454 0
-3324 -3317 0
-3324 -3447 0
-3470 -3325 0
-3470 -3352 0
-3332 -3459 0
-3332 -3440 0
-3333 -3479 0
-3333 -3360 0
-3445 -3309 0
-3445 -3443 0
-3489 -3484 0
-3489 -3466 0
-3479 -3333 0
-3479 -3457 0
-3450 -3317 0
-3450 -3447 0
-3498 -3491 0
-3498 -3472 0
-3484 -3489 0
-3484 -3462 0
-3454 -3325 0
-3454 -3352 0
-3504 -3353 0
-3504 -3477 0
-3491 -3498 0
-3491 -3468 0
-3353 -3504 0
-3353 -3380 0
-3360 -3333 0
-3360 -3457 0
-3361 -3508 0
-3361 -3388 0
-3466 -3489 0
-3466 -3462 0
-3517 -3513 0
-3517 -3494 0
-3508 -3361 0
-3508 -3481 0
-3472 -3498 0
-3472 -3468 0
-3523 -3519 0
-3523 -3501 0
-3513 -3517 0
-3513 -3487 0
-3477 -3504 0
-3477 -3380 0
-3528 -3381 0
-3528 -3506 0
-3519 -3523 0
-3519 -3496 0
-3381 -3528 0
-3381 -3408 0
-3388 -3361 0
-3388 -3481 0
-3389 -3533 0
-3389 -3515 0
-3494 -3517 0
-3494 -3487 0
-3538 -3535 0
-3538 -3416 0
-3533 -3389 0
-3533 -3417 0
-3501 -3523 0
-3501 -3496 0
-3542 -3540 0
-3542 -3424 0
-3535 -3538 0
-3535 -3425 0
-3506 -3528 0
-3506 -3408 0
-3547 -3409 0
-3547 -3432 0
-3540 -3542 0
-3540 -3433 0
-3409 -3547 0
-3409 -3526 0
-3515 -3389 0
-3515 -3417 0
-3416 -3538 0
-3416 -3425 0
-3424 -3542 0
-3424 -3433 0
-3432 -3547 0
-3432 -3526 0
-3459 -3312 -3334 0
-3308 -3312 -3334 0
-3312 -3334 -3332 0
-3311 -3312 -3334 -3335 0
-3309 -3320 -3442 0
-3316 -3320 -3442 0
-3320 -3442 -3445 0
-3319 -3320 -3442 -3464 0
-3308 -3441 -3442 0
-3459 -3441 -3442 0
-3440 -3441 -3442 0
-3441 -3455 -3442 -3456 0
-3317 -3328 -3446 0
-3324 -3328 -3446 0
-3328 -3446 -3450 0
-3327 -3328 -3446 -3471 0
-3316 -3310 -3446 0
-3309 -3310 -3446 0
-3443 -3310 -3446 0
-3310 -3311 -3446 -3460 0
-3325 -3449 -3451 0
-3470 -3449 -3451 0
-3449 -3451 -3454 0
-3475 -3449 -3451 -3476 0
-3324 -3318 -3451 0
-3317 -3318 -3451 0
-3447 -3318 -3451 0
-3318 -3319 -3451 -3465 0
-3470 -3326 -3354 0
-3325 -3326 -3354 0
-3352 -3326 -3354 0
-3326 -3327 -3354 -3356 0
-3332 -3455 -3456 0
-3459 -3455 -3456 0
-3455 -3456 -3440 0
-3333 -3456 -3362 0
-3479 -3456 -3362 0
-3456 -3362 -3360 0
-3483 -3456 -3362 -3363 0
-3445 -3311 -3460 0
-3309 -3311 -3460 0
-3311 -3460 -3443 0
-3489 -3460 -3461 0
-3484 -3460 -3461 0
-3460 -3461 -3466 0
-3490 -3460 -3461 -3492 0
-3479 -3335 -3461 0
-3333 -3335 -3461 0
-3457 -3335 -3461 0
-3335 -3336 -3461 -3480 0
-3440 -3311 -3335 0
-3332 -3311 -3335 0
-3308 -3311 -3335 0
-3450 -3319 -3465 0
-3317 -3319 -3465 0
-3319 -3465 -3447 0
-3498 -3465 -3467 0
-3491 -3465 -3467 0
-3465 -3467 -3472 0
-3499 -3465 -3467 -3500 0
-3484 -3464 -3467 0
-3489 -3464 -3467 0
-3462 -3464 -3467 0
-3464 -3483 -3467 -3485 0
-3443 -3319 -3464 0
-3445 -3319 -3464 0
-3316 -3319 -3464 0
-3454 -3327 -3356 0
-3325 -3327 -3356 0
-3327 -3356 -3352 0
-3504 -3356 -3473 0
-3353 -3356 -3473 0
-3356 -3473 -3477 0
-3355 -3356 -3473 -3505 0
-3491 -3471 -3473 0
-3498 -3471 -3473 0
-3468 -3471 -3473 0
-3471 -3490 -3473 -3493 0
-3447 -3327 -3471 0
-3450 -3327 -3471 0
-3324 -3327 -3471 0
-3353 -3476 -3382 0
-3504 -3476 -3382 0
-3380 -3476 -3382 0
-3476 -3499 -3382 -3384 0
-3352 -3475 -3476 0
-3454 -3475 -3476 0
-3470 -3475 -3476 0
-3360 -3336 -3480 0
-3333 -3336 -3480 0
-3336 -3480 -3457 0
-3361 -3480 -3390 0
-3508 -3480 -3390 0
-3480 -3390 -3388 0
-3512 -3480 -3390 -3391 0
-3466 -3483 -3485 0
-3489 -3483 -3485 0
-3483 -3485 -3462 0
-3517 -3485 -3486 0
-3513 -3485 -3486 0
-3485 -3486 -3494 0
-3518 -3485 -3486 -3520 0
-3508 -3363 -3486 0
-3361 -3363 -3486 0
-3481 -3363 -3486 0
-3363 -3364 -3486 -3509 0
-3457 -3483 -3363 0
-3360 -3483 -3363 0
-3479 -3483 -3363 0
-3472 -3490 -3493 0
-3498 -3490 -3493 0
-3490 -3493 -3468 0
-3523 -3493 -3495 0
-3519 -3493 -3495 0
-3493 -3495 -3501 0
-3524 -3493 -3495 -3525 0
-3513 -3492 -3495 0
-3517 -3492 -3495 0
-3487 -3492 -3495 0
-3492 -3512 -3495 -3514 0
-3462 -3490 -3492 0
-3466 -3490 -3492 0
-3484 -3490 -3492 0
-3477 -3499 -3384 0
-3504 -3499 -3384 0
-3499 -3384 -3380 0
-3528 -3384 -3502 0
-3381 -3384 -3502 0
-3384 -3502 -3506 0
-3383 -3384 -3502 -3529 0
-3519 -3500 -3502 0
-3523 -3500 -3502 0
-3496 -3500 -3502 0
-3500 -3518 -3502 -3521 0
-3468 -3499 -3500 0
-3472 -3499 -3500 0
-3491 -3499 -3500 0
-3381 -3505 -3410 0
-3528 -3505 -3410 0
-3408 -3505 -3410 0
-3505 -3524 -3410 -3412 0
-3380 -3355 -3505 0
-3477 -3355 -3505 0
-3353 -3355 -3505 0
-3388 -3364 -3509 0
-3361 -3364 -3509 0
-3364 -3509 -3481 0
-3389 -3509 -3510 0
-3533 -3509 -3510 0
-3509 -3510 -3515 0
-3534 -3509 -3510 -3536 0
-3494 -3512 -3514 0
-3517 -3512 -3514 0
-3512 -3514 -3487 0
-3538 -3514 -3418 0
-3535 -3514 -3418 0
-3514 -3418 -3416 0
-3539 -3514 -3418 -3419 0
-3533 -3391 -3418 0
-3389 -3391 -3418 0
-3417 -3391 -3418 0
-3391 -3392 -3418 -3420 0
-3481 -3512 -3391 0
-3388 -3512 -3391 0
-3508 -3512 -3391 0
-3501 -3518 -3521 0
-3523 -3518 -3521 0
-3518 -3521 -3496 0
-3542 -3521 -3426 0
-3540 -3521 -3426 0
-3521 -3426 -3424 0
-3543 -3521 -3426 -3427 0
-3535 -3520 -3426 0
-3538 -3520 -3426 0
-3425 -3520 -3426 0
-3520 -3534 -3426 -3428 0
-3487 -3518 -3520 0
-3494 -3518 -3520 0
-3513 -3518 -3520 0
-3506 -3524 -3412 0
-3528 -3524 -3412 0
-3524 -3412 -3408 0
-3547 -3412 -3434 0
-3409 -3412 -3434 0
-3412 -3434 -3432 0
-3411 -3412 -3434 -3435 0
-3540 -3525 -3434 0
-3542 -3525 -3434 0
-3433 -3525 -3434 0
-3525 -3539 -3434 -3436 0
-3496 -3524 -3525 0
-3501 -3524 -3525 0
-3519 -3524 -3525 0
-3409 -3529 -3530 0
-3547 -3529 -3530 0
-3526 -3529 -3530 0
-3529 -3543 -3530 -3544 0
-3408 -3383 -3529 0
-3506 -3383 -3529 0
-3381 -3383 -3529 0
-3515 -3392 -3420 0
-3389 -3392 -3420 0
-3392 -3420 -3417 0
-3416 -3534 -3428 0
-3538 -3534 -3428 0
-3534 -3428 -3425 0
-3417 -3534 -3536 0
-3515 -3534 -3536 0
-3533 -3534 -3536 0
-3424 -3539 -3436 0
-3542 -3539 -3436 0
-3539 -3436 -3433 0
-3425 -3539 -3419 0
-3416 -3539 -3419 0
-3535 -3539 -3419 0
-3432 -3543 -3544 0
-3547 -3543 -3544 0
-3543 -3544 -3526 0
-3433 -3543 -3427 0
-3424 -3543 -3427 0
-3540 -3543 -3427 0
-3526 -3411 -3435 0
-3432 -3411 -3435 0
-3409 -3411 -3435 0
41 6400 0
47 6400 0
48 6400 0
49 6400 0
50 6400 0
-49 -50 -48 -47 -41 -6400 0
31 6401 0
37 6401 0
38 6401 0
39 6401 0
40 6401 0
-39 -40 -38 -37 -31 -6401 0
21 6402 0
27 6402 0
28 6402 0
29 6402 0
30 6402 0
-29 -30 -28 -27 -21 -6402 0
1 11 -6400 -6401 -6402 0
7 11 -6400 -6401 -6402 0
8 11 -6400 -6401 -6402 0
9 11 -6400 -6401 -6402 0
10 11 -6400 -6401 -6402 0
1 17 -6400 -6401 -6402 0
7 17 -6400 -6401 -6402 0
8 17 -6400 -6401 -6402 0
9 17 -6400 -6401 -6402 0
10 17 -6400 -6401 -6402 0
1 18 -6400 -6401 -6402 0
7 18 -6400 -6401 -6402 0
8 18 -6400 -6401 -6402 0
9 18 -6400 -6401 -6402 0
10 18 -6400 -6401 -6402 0
1 19 -6400 -6401 -6402 0
7 19 -6400 -6401 -6402 0
8 19 -6400 -6401 -6402 0
9 19 -6400 -6401 -6402 0
10 19 -6400 -6401 -6402 0
1 20 -6400 -6401 -6402 0
7 20 -6400 -6401 -6402 0
8 20 -6400 -6401 -6402 0
9 20 -6400 -6401 -6402 0
10 20 -6400 -6401 -6402 0
91 6403 0
97 6403 0
98 6403 0
99 6403 0
100 6403 0
-99 -100 -98 -97 -91 -6403 0
81 6404 0
87 6404 0
88 6404 0
89 6404 0
90 6404 0
-89 -90 -88 -87 -81 -6404 0
71 6405 0
77 6405 0
78 6405 0
79 6405 0
80 6405 0
-79 -80 -78 -77 -71 -6405 0
61 6406 0
67 6406 0
68 6406 0
69 6406 0
70 6406 0
-69 -70 -68 -67 -61 -6406 0
51 6407 0
57 6407 0
58 6407 0
59 6407 0
60 6407 0
-59 -60 -58 -57 -51 -6407 0
1 11 -6400 -6401 -6402 -6403 -6404 -6405 -6406 -6407 0
7 11 -6400 -6401 -6402 -6403 -6404 -6405 -6406 -6407 0
8 11 -6400 -6401 -6402 -6403 -6404 -6405 -6406 -6407 0
9 11 -6400 -6401 -6402 -6403 -6404 -6405 -6406 -6407 0
10 11 -6400 -6401 -6402 -6403 -6404 -6405 -6406 -6407 0
1 17 -6400 -6401 -6402 -6403 -6404 -6405 -6406 -6407 0
7 17 -6400 -6401 -6402 -6403 -6404 -6405 -6406 -6407 0
8 17 -6400 -6401 -6402 -6403 -6404 -6405 -6406 -6407 0
9 17 -6400 -6401 -6402 -6403 -6404 -6405 -6406 -6407 0
10 17 -6400 -6401 -6402 -6403 -6404 -6405 -6406 -6407 0
1 18 -6400 -6401 -6402 -6403 -6404 -6405 -6406 -6407 0
7 18 -6400 -6401 -6402 -6403 -6404 -6405 -6406 -6407 0
8 18 -6400 -6401 -6402 -6403 -6404 -6405 -6406 -6407 0
9 18 -6400 -6401 -6402 -6403 -6404 -6405 -6406 -6407 0
10 18 -6400 -6401 -6402 -6403 -6404 -6405 -6406 -6407 0
1 19 -6400 -6401 -6402 -6403 -6404 -6405 -6406 -6407 0
7 19 -6400 -6401 -6402 -6403 -6404 -6405 -6406 -6407 0
8 19 -6400 -6401 -6402 -6403 -6404 -6405 -6406 -6407 0
9 19 -6400 -6401 -6402 -6403 -6404 -6405 -6406 -6407 0
10 19 -6400 -6401 -6402 -6403 -6404 -6405 -6406 -6407 0
1 20 -6400 -6401 -6402 -6403 -6404 -6405 -6406 -6407 0
7 20 -6400 -6401 -6402 -6403 -6404 -6405 -6406 -6407 0
8 20 -6400 -6401 -6402 -6403 -6404 -6405 -6406 -6407 0
9 20 -6400 -6401 -6402 -6403 -6404 -6405 -6406 -6407 0
10 20 -6400 -6401 -6402 -6403 -6404 -6405 -6406 -6407 0
141 6408 0
147 6408 0
148 6408 0
149 6408 0
150 6408 0
-149 -150 -148 -147 -141 -6408 0
131 6409 0
137 6409 0
138 6409 0
139 6409 0
140 6409 0
-139 -140 -138 -137 -131 -6409 0
121 6410 0
127 6410 0
128 6410 0
129 6410 0
130 6410 0
-129 -130 -128 -127 -121 -6410 0
111 6411 0
117 6411 0
118 6411 0
119 6411 0
120 6411 0
-119 -120 -118 -117 -111 -6411 0
101 6412 0
107 6412 0
108 6412 0
109 6412 0
110 6412 0
-109 -110 -108 -107 -101 -6412 0
1 11 -6400 -6401 -6402 -6403 -6404 -6405 -6406 -6407 -6408 -6409 -6410 -6411 -6412 0
7 11 -6400 -6401 -6402 -6403 -6404 -6405 -6406 -6407 -6408 -6409 -6410 -6411 -6412 0
8 11 -6400 -6401 -6402 -6403 -6404 -6405 -6406 -6407 -6408 -6409 -6410 -6411 -6412 0
9 11 -6400 -6401 -6402 -6403 -6404 -6405 -6406 -6407 -6408 -6409 -6410 -6411 -6412 0
10 11 -6400 -6401 -6402 -6403 -6404 -6405 -6406 -6407 -6408 -6409 -6410 -6411 -6412 0
1 17 -6400 -6401 -6402 -6403 -6404 -6405 -6406 -6407 -6408 -6409 -6410 -6411 -6412 0
7 17 -6400 -6401 -6402 -6403 -6404 -6405 -6406 -6407 -6408 -6409 -6410 -6411 -6412 0
8 17 -6400 -6401 -6402 -6403 -6404 -6405 -6406 -6407 -6408 -6409 -6410 -6411 -6412 0
9 17 -6400 -6401 -6402 -6403 -6404 -6405 -6406 -6407 -6408 -6409 -6410 -6411 -6412 0
10 17 -6400 -6401 -6402 -6403 -6404 -6405 -6406 -6407 -6408 -6409 -6410 -6411 -6412 0
1 18 -6400 -6401 -6402 -6403 -6404 -6405 -6406 -6407 -6408 -6409 -6410 -6411 -6412 0
7 18 -6400 -6401 -6402 -6403 -6404 -6405 -6406 -6407 -6408 -6409 -6410 -6411 -6412 0
8 18 -6400 -6401 -6402 -6403 -6404 -6405 -6406 -6407 -6408 -6409 -6410 -6411 -6412 0
9 18 -6400 -6401 -6402 -6403 -6404 -6405 -6406 -6407 -6408 -6409 -6410 -6411 -6412 0
10 18 -6400 -6401 -6402 -6403 -6404 -6405 -6406 -6407 -6408 -6409 -6410 -6411 -6412 0
1 19 -6400 -6401 -6402 -6403 -6404 -6405 -6406 -6407 -6408 -6409 -6410 -6411 -6412 0
7 19 -6400 -6401 -6402 -6403 -6404 -6405 -6406 -6407 -6408 -6409 -6410 -6411 -6412 0
8 19 -6400 -6401 -6402 -6403 -6404 -6405 -6406 -6407 -6408 -6409 -6410 -6411 -6412 0
9 19 -6400 -6401 -6402 -6403 -6404 -6405 -6406 -6407 -6408 -6409 -6410 -6411 -6412 0
10 19 -6400 -6401 -6402 -6403 -6404 -6405 -6406 -6407 -6408 -6409 -6410 -6411 -6412 0
1 20 -6400 -6401 -6402 -6403 -6404 -6405 -6406 -6407 -6408 -6409 -6410 -6411 -6412 0
7 20 -6400 -6401 -6402 -6403 -6404 -6405 -6406 -6407 -6408 -6409 -6410 -6411 -6412 0
8 20 -6400 -6401 -6402 -6403 -6404 -6405 -6406 -6407 -6408 -6409 -6410 -6411 -6412 0
9 20 -6400 -6401 -6402 -6403 -6404 -6405 -6406 -6407 -6408 -6409 -6410 -6411 -6412 0
10 20 -6400 -6401 -6402 -6403 -6404 -6405 -6406 -6407 -6408 -6409 -6410 -6411 -6412 0
191 6413 0
197 6413 0
198 6413 0
199 6413 0
200 6413 0
-199 -200 -198 -197 -191 -6413 0
181 6414 0
187 6414 0
188 6414 0
189 6414 0
190 6414 0
-189 -190 -188 -187 -181 -6414 0
171 6415 0
177 6415 0
178 6415 0
179 6415 0
180 6415 0
-179 -180 -178 -177 -171 -6415 0
161 6416 0
167 6416 0
168 6416 0
169 6416 0
170 6416 0
-169 -170 -168 -167 -161 -6416 0
151 6417 0
157 6417 0
158 6417 0
159 6417 0
160 6417 0
-159 -160 -158 -157 -151 -6417 0
1 11 -6400 -6401 -6402 -6403 -6404 -6405 -6406 -6407 -6408 -6409 -6410 -6411 -6412 -6413 -6414 -6415 -6416 -6417 0
7 11 -6400 -6401 -6402 -6403 -6404 -6405 -6406 -6407 -6408 -6409 -6410 -6411 -6412 -6413 -6414 -6415 -6416 -6417 0
8 11 -6400 -6401 -6402 -6403 -6404 -6405 -6406 -6407 -6408 -6409 -6410 -6411 -6412 -6413 -6414 -6415 -6416 -6417 0
9 11 -6400 -6401 -6402 -6403 -6404 -6405 -6406 -6407 -6408 -6409 -6410 -6411 -6412 -6413 -6414 -6415 -6416 -6417 0
10 11 -6400 -6401 -6402 -6403 -6404 -6405 -6406 -6407 -6408 -6409 -6410 -6411 -6412 -6413 -6414 -6415 -6416 -6417 0
1 17 -6400 -6401 -6402 -6403 -6404 -6405 -6406 -6407 -6408 -6409 -6410 -6411 -6412 -6413 -6414 -6415 -6416 -6417 0
7 17 -6400 -6401 -6402 -6403 -6404 -6405 -6406 -6407 -6408 -6409 -6410 -6411 -6412 -6413 -6414 -6415 -6416 -6417 0
8 17 -6400 -6401 -6402 -6403 -6404 -6405 -6406 -6407 -6408 -6409 -6410 -6411 -6412 -6413 -6414 -6415 -6416 -6417 0
9 17 -6400 -6401 -6402 -6403 -6404 -6405 -6406 -6407 -6408 -6409 -6410 -6411 -6412 -6413 -6414 -6415 -6416 -6417 0
10 17 -6400 -6401 -6402 -6403 -6404 -6405 -6406 -6407 -6408 -6409 -6410 -6411 -6412 -6413 -6414 -6415 -6416 -6417 0
1 18 -6400 -6401 -6402 -6403 -6404 -6405 -6406 -6407 -6408 -6409 -6410 -6411 -6412 -6413 -6414 -6415 -6416 -6417 0
7 18 -6400 -6401 -6402 -6403 -6404 -6405 -6406 -6407 -6408 -6409 -6410 -6411 -6412 -6413 -6414 -6415 -6416 -6417 0
8 18 -6400 -6401 -6402 -6403 -6404 -6405 -6406 -6407 -6408 -6409 -6410 -6411 -6412 -6413 -6414 -6415 -6416 -6417 0
9 18 -6400 -6401 -6402 -6403 -6404 -6405 -6406 -6407 -6408 -6409 -6410 -6411 -6412 -6413 -6414 -6415 -6416 -6417 0
10 18 -6400 -6401 -6402 -6403 -6404 -6405 -6406 -6407 -6408 -6409 -6410 -6411 -6412 -6413 -6414 -6415 -6416 -6417 0
1 19 -6400 -6401 -6402 -6403 -6404 -6405 -6406 -6407 -6408 -6409 -6410 -6411 -6412 -6413 -6414 -6415 -6416 -6417 0
7 19 -6400 -6401 -6402 -6403 -6404 -6405 -6406 -6407 -6408 -6409 -6410 -6411 -6412 -6413 -6414 -6415 -6416 -6417 0
8 19 -6400 -6401 -6402 -6403 -6404 -6405 -6406 -6407 -6408 -6409 -6410 -6411 -6412 -6413 -6414 -6415 -6416 -6417 0
9 19 -6400 -6401 -6402 -6403 -6404 -6405 -6406 -6407 -6408 -6409 -6410 -6411 -6412 -6413 -6414 -6415 -6416 -6417 0
10 19 -6400 -6401 -6402 -6403 -6404 -6405 -6406 -6407 -6408 -6409 -6410 -6411 -6412 -6413 -6414 -6415 -6416 -6417 0
1 20 -6400 -6401 -6402 -6403 -6404 -6405 -6406 -6407 -6408 -6409 -6410 -6411 -6412 -6413 -6414 -6415 -6416 -6417 0
7 20 -6400 -6401 -6402 -6403 -6404 -6405 -6406 -6407 -6408 -6409 -6410 -6411 -6412 -6413 -6414 -6415 -6416 -6417 0
8 20 -6400 -6401 -6402 -6403 -6404 -6405 -6406 -6407 -6408 -6409 -6410 -6411 -6412 -6413 -6414 -6415 -6416 -6417 0
9 20 -6400 -6401 -6402 -6403 -6404 -6405 -6406 -6407 -6408 -6409 -6410 -6411 -6412 -6413 -6414 -6415 -6416 -6417 0
10 20 -6400 -6401 -6402 -6403 -6404 -6405 -6406 -6407 -6408 -6409 -6410 -6411 -6412 -6413 -6414 -6415 -6416 -6417 0
241 6418 0
247 6418 0
248 6418 0
249 6418 0
250 6418 0
-249 -250 -248 -247 -241 -6418 0
231 6419 0
237 6419 0
238 6419 0
239 6419 0
240 6419 0
-239 -240 -238 -237 -231 -6419 0
221 6420 0
227 6420 0
228 6420 0
229 6420 0
230 6420 0
-229 -230 -228 -227 -221 -6420 0
211 6421 0
217 6421 0
218 6421 0
219 6421 0
220 6421 0
-219 -220 -218 -217 -211 -6421 0
201 6422 0
207 6422 0
208 6422 0
209 6422 0
210 6422 0
-209 -210 -208 -207 -201 -6422 0
1 11 -6400 -6401 -6402 -6403 -6404 -6405 -6406 -6407 -6408 -6409 -6410 -6411 -6412 -6413 -6414 -6415 -6416 -6417 -6418 -6419 -6420 -6421 -6422 0
7 11 -6400 -6401 -6402 -6403 -6404 -6405 -6406 -6407 -6408 -6409 -6410 -6411 -6412 -6413 -6414 -6415 -6416 -6417 -6418 -6419 -6420 -6421 -6422 0
8 11 -6400 -6401 -6402 -6403 -6404 -6405 -6406 -6407 -6408 -6409 -6410 -6411 -6412 -6413 -6414 -6415 -6416 -6417 -6418 -6419 -6420 -6421 -6422 0
9 11 -6400 -6401 -6402 -6403 -6404 -6405 -6406 -6407 -6408 -6409 -6410 -6411 -6412 -6413 -6414 -6415 -6416 -6417 -6418 -6419 -6420 -6421 -6422 0
10 11 -6400 -6401 -6402 -6403 -6404 -6405 -6406 -6407 -6408 -6409 -6410 -6411 -6412 -6413 -6414 -6415 -6416 -6417 -6418 -6419 -6420 -6421 -6422 0
1 17 -6400 -6401 -6402 -6403 -6404 -6405 -6406 -6407 -6408 -6409 -6410 -6411 -6412 -6413 -6414 -6415 -6416 -6417 -6418 -6419 -6420 -6421 -6422 0
7 17 -6400 -6401 -6402 -6403 -6404 -6405 -6406 -6407 -6408 -6409 -6410 -6411 -6412 -6413 -6414 -6415 -6416 -6417 -6418 -6419 -6420 -6421 -6422 0
8 17 -6400 -6401 -6402 -6403 -6404 -6405 -6406 -6407 -6408 -6409 -6410 -6411 -6412 -6413 -6414 -6415 -6416 -6417 -6418 -6419 -6420 -6421 -6422 0
9 17 -6400 -6401 -6402 -6403 -6404 -6405 -6406 -6407 -6408 -6409 -6410 -6411 -6412 -6413 -6414 -6415 -6416 -6417 -6418 -6419 -6420 -6421 -6422 0
10 17 -6400 -6401 -6402 -6403 -6404 -6405 -6406 -6407 -6408 -6409 -6410 -6411 -6412 -6413 -6414 -6415 -6416 -6417 -6418 -6419 -6420 -6421 -6422 0
1 18 -6400 -6401 -6402 -6403 -6404 -6405 -6406 -6407 -6408 -6409 -6410 -6411 -6412 -6413 -6414 -6415 -6416 -6417 -6418 -6419 -6420 -6421 -6422 0
7 18 -6400 -6401 -6402 -6403 -6404 -6405 -6406 -6407 -6408 -6409 -6410 -6411 -6412 -6413 -6414 -6415 -6416 -6417 -6418 -6419 -6420 -6421 -6422 0
8 18 -6400 -6401 -6402 -6403 -6404 -6405 -6406 -6407 -6408 -6409 -6410 -6411 -6412 -6413 -6414 -6415 -6416 -6417 -6418 -6419 -6420 -6421 -6422 0
9 18 -6400 -6401 -6402 -6403 -6404 -6405 -6406 -6407 -6408 -6409 -6410 -6411 -6412 -6413 -6414 -6415 -6416 -6417 -6418 -6419 -6420 -6421 -6422 0
10 18 -6400 -6401 -6402 -6403 -6404 -6405 -6406 -6407 -6408 -6409 -6410 -6411 -6412 -6413 -6414 -6415 -6416 -6417 -6418 -6419 -6420 -6421 -6422 0
1 19 -6400 -6401 -6402 -6403 -6404 -6405 -6406 -6407 -6408 -6409 -6410 -6411 -6412 -6413 -6414 -6415 -6416 -6417 -6418 -6419 -6420 -6421 -6422 0
7 19 -6400 -6401 -6402 -6403 -6404 -6405 -6406 -6407 -6408 -6409 -6410 -6411 -6412 -6413 -6414 -6415 -6416 -6417 -6418 -6419 -6420 -6421 -6422 0
8 19 -6400 -6401 -6402 -6403 -6404 -6405 -6406 -6407 -6408 -6409 -6410 -6411 -6412 -6413 -6414 -6415 -6416 -6417 -6418 -6419 -6420 -6421 -6422 0
9 19 -6400 -6401 -6402 -6403 -6404 -6405 -6406 -6407 -6408 -6409 -6410 -6411 -6412 -6413 -6414 -6415 -6416 -6417 -6418 -6419 -6420 -6421 -6422 0
10 19 -6400 -6401 -6402 -6403 -6404 -6405 -6406 -6407 -6408 -6409 -6410 -6411 -6412 -6413 -6414 -6415 -6416 -6417 -6418 -6419 -6420 -6421 -6422 0
1 20 -6400 -6401 -6402 -6403 -6404 -6405 -6406 -6407 -6408 -6409 -6410 -6411 -6412 -6413 -6414 -6415 -6416 -6417 -6418 -6419 -6420 -6421 -6422 0
7 20 -6400 -6401 -6402 -6403 -6404 -6405 -6406 -6407 -6408 -6409 -6410 -6411 -6412 -6413 -6414 -6415 -6416 -6417 -6418 -6419 -6420 -6421 -6422 0
8 20 -6400 -6401 -6402 -6403 -6404 -6405 -6406 -6407 -6408 -6409 -6410 -6411 -6412 -6413 -6414 -6415 -6416 -6417 -6418 -6419 -6420 -6421 -6422 0
9 20 -6400 -6401 -6402 -6403 -6404 -6405 -6406 -6407 -6408 -6409 -6410 -6411 -6412 -6413 -6414 -6415 -6416 -6417 -6418 -6419 -6420 -6421 -6422 0
10 20 -6400 -6401 -6402 -6403 -6404 -6405 -6406 -6407 -6408 -6409 -6410 -6411 -6412 -6413 -6414 -6415 -6416 -6417 -6418 -6419 -6420 -6421 -6422 0
-249 6423 0
-250 6423 0
248 6423 0
247 6423 0
241 6423 0
249 250 -248 -247 -241 -6423 0
-239 6424 0
-240 6424 0
238 6424 0
237 6424 0
231 6424 0
239 240 -238 -237 -231 -6424 0
-229 6425 0
-230 6425 0
228 6425 0
227 6425 0
221 6425 0
229 230 -228 -227 -221 -6425 0
-219 6426 0
-220 6426 0
218 6426 0
217 6426 0
211 6426 0
219 220 -218 -217 -211 -6426 0
-209 6427 0
-210 6427 0
208 6427 0
207 6427 0
201 6427 0
209 210 -208 -207 -201 -6427 0
-199 6428 0
-200 6428 0
198 6428 0
197 6428 0
191 6428 0
199 200 -198 -197 -191 -6428 0
-189 6429 0
-190 6429 0
188 6429 0
187 6429 0
181 6429 0
189 190 -188 -187 -181 -6429 0
-179 6430 0
-180 6430 0
178 6430 0
177 6430 0
171 6430 0
179 180 -178 -177 -171 -6430 0
-169 6431 0
-170 6431 0
168 6431 0
167 6431 0
161 6431 0
169 170 -168 -167 -161 -6431 0
-159 6432 0
-160 6432 0
158 6432 0
157 6432 0
151 6432 0
159 160 -158 -157 -151 -6432 0
-149 6433 0
-150 6433 0
148 6433 0
147 6433 0
141 6433 0
149 150 -148 -147 -141 -6433 0
-139 6434 0
-140 6434 0
138 6434 0
137 6434 0
131 6434 0
139 140 -138 -137 -131 -6434 0
-129 6435 0
-130 6435 0
128 6435 0
127 6435 0
121 6435 0
129 130 -128 -127 -121 -6435 0
-119 6436 0
-120 6436 0
118 6436 0
117 6436 0
111 6436 0
119 120 -118 -117 -111 -6436 0
-109 6437 0
-110 6437 0
108 6437 0
107 6437 0
101 6437 0
109 110 -108 -107 -101 -6437 0
-99 6438 0
-100 6438 0
98 6438 0
97 6438 0
91 6438 0
99 100 -98 -97 -91 -6438 0
-89 6439 0
-90 6439 0
88 6439 0
87 6439 0
81 6439 0
89 90 -88 -87 -81 -6439 0
-79 6440 0
-80 6440 0
78 6440 0
77 6440 0
71 6440 0
79 80 -78 -77 -71 -6440 0
-69 6441 0
-70 6441 0
68 6441 0
67 6441 0
61 6441 0
69 70 -68 -67 -61 -6441 0
-59 6442 0
-60 6442 0
58 6442 0
57 6442 0
51 6442 0
59 60 -58 -57 -51 -6442 0
-49 6443 0
-50 6443 0
48 6443 0
47 6443 0
41 6443 0
49 50 -48 -47 -41 -6443 0
-39 6444 0
-40 6444 0
38 6444 0
37 6444 0
31 6444 0
39 40 -38 -37 -31 -6444 0
-29 6445 0
-30 6445 0
28 6445 0
27 6445 0
21 6445 0
29 30 -28 -27 -21 -6445 0
-9 -19 -6423 -6424 -6425 -6426 -6427 -6428 -6429 -6430 -6431 -6432 -6433 -6434 -6435 -6436 -6437 -6438 -6439 -6440 -6441 -6442 -6443 -6444 -6445 0
-10 -19 -6423 -6424 -6425 -6426 -6427 -6428 -6429 -6430 -6431 -6432 -6433 -6434 -6435 -6436 -6437 -6438 -6439 -6440 -6441 -6442 -6443 -6444 -6445 0
8 -19 -6423 -6424 -6425 -6426 -6427 -6428 -6429 -6430 -6431 -6432 -6433 -6434 -6435 -6436 -6437 -6438 -6439 -6440 -6441 -6442 -6443 -6444 -6445 0
7 -19 -6423 -6424 -6425 -6426 -6427 -6428 -6429 -6430 -6431 -6432 -6433 -6434 -6435 -6436 -6437 -6438 -6439 -6440 -6441 -6442 -6443 -6444 -6445 0
1 -19 -6423 -6424 -6425 -6426 -6427 -6428 -6429 -6430 -6431 -6432 -6433 -6434 -6435 -6436 -6437 -6438 -6439 -6440 -6441 -6442 -6443 -6444 -6445 0
-9 -20 -6423 -6424 -6425 -6426 -6427 -6428 -6429 -6430 -6431 -6432 -6433 -6434 -6435 -6436 -6437 -6438 -6439 -6440 -6441 -6442 -6443 -6444 -6445 0
-10 -20 -6423 -6424 -6425 -6426 -6427 -6428 -6429 -6430 -6431 -6432 -6433 -6434 -6435 -6436 -6437 -6438 -6439 -6440 -6441 -6442 -6443 -6444 -6445 0
8 -20 -6423 -6424 -6425 -6426 -6427 -6428 -6429 -6430 -6431 -6432 -6433 -6434 -6435 -6436 -6437 -6438 -6439 -6440 -6441 -6442 -6443 -6444 -6445 0
7 -20 -6423 -6424 -6425 -6426 -6427 -6428 -6429 -6430 -6431 -6432 -6433 -6434 -6435 -6436 -6437 -6438 -6439 -6440 -6441 -6442 -6443 -6444 -6445 0
1 -20 -6423 -6424 -6425 -6426 -6427 -6428 -6429 -6430 -6431 -6432 -6433 -6434 -6435 -6436 -6437 -6438 -6439 -6440 -6441 -6442 -6443 -6444 -6445 0
18 -9 -6423 -6424 -6425 -6426 -6427 -6428 -6429 -6430 -6431 -6432 -6433 -6434 -6435 -6436 -6437 -6438 -6439 -6440 -6441 -6442 -6443 -6444 -6445 0
18 -10 -6423 -6424 -6425 -6426 -6427 -6428 -6429 -6430 -6431 -6432 -6433 -6434 -6435 -6436 -6437 -6438 -6439 -6440 -6441 -6442 -6443 -6444 -6445 0
8 18 -6423 -6424 -6425 -6426 -6427 -6428 -6429 -6430 -6431 -6432 -6433 -6434 -6435 -6436 -6437 -6438 -6439 -6440 -6441 -6442 -6443 -6444 -6445 0
7 18 -6423 -6424 -6425 -6426 -6427 -6428 -6429 -6430 -6431 -6432 -6433 -6434 -6435 -6436 -6437 -6438 -6439 -6440 -6441 -6442 -6443 -6444 -6445 0
1 18 -6423 -6424 -6425 -6426 -6427 -6428 -6429 -6430 -6431 -6432 -6433 -6434 -6435 -6436 -6437 -6438 -6439 -6440 -6441 -6442 -6443 -6444 -6445 0
17 -9 -6423 -6424 -6425 -6426 -6427 -6428 -6429 -6430 -6431 -6432 -6433 -6434 -6435 -6436 -6437 -6438 -6439 -6440 -6441 -6442 -6443 -6444 -6445 0
17 -10 -6423 -6424 -6425 -6426 -6427 -6428 -6429 -6430 -6431 -6432 -6433 -6434 -6435 -6436 -6437 -6438 -6439 -6440 -6441 -6442 -6443 -6444 -6445 0
8 17 -6423 -6424 -6425 -6426 -6427 -6428 -6429 -6430 -6431 -6432 -6433 -6434 -6435 -6436 -6437 -6438 -6439 -6440 -6441 -6442 -6443 -6444 -6445 0
7 17 -6423 -6424 -6425 -6426 -6427 -6428 -6429 -6430 -6431 -6432 -6433 -6434 -6435 -6436 -6437 -6438 -6439 -6440 -6441 -6442 -6443 -6444 -6445 0
1 17 -6423 -6424 -6425 -6426 -6427 -6428 -6429 -6430 -6431 -6432 -6433 -6434 -6435 -6436 -6437 -6438 -6439 -6440 -6441 -6442 -6443 -6444 -6445 0
11 -9 -6423 -6424 -6425 -6426 -6427 -6428 -6429 -6430 -6431 -6432 -6433 -6434 -6435 -6436 -6437 -6438 -6439 -6440 -6441 -6442 -6443 -6444 -6445 0
11 -10 -6423 -6424 -6425 -6426 -6427 -6428 -6429 -6430 -6431 -6432 -6433 -6434 -6435 -6436 -6437 -6438 -6439 -6440 -6441 -6442 -6443 -6444 -6445 0
8 11 -6423 -6424 -6425 -6426 -6427 -6428 -6429 -6430 -6431 -6432 -6433 -6434 -6435 -6436 -6437 -6438 -6439 -6440 -6441 -6442 -6443 -6444 -6445 0
7 11 -6423 -6424 -6425 -6426 -6427 -6428 -6429 -6430 -6431 -6432 -6433 -6434 -6435 -6436 -6437 -6438 -6439 -6440 -6441 -6442 -6443 -6444 -6445 0
1 11 -6423 -6424 -6425 -6426 -6427 -6428 -6429 -6430 -6431 -6432 -6433 -6434 -6435 -6436 -6437 -6438 -6439 -6440 -6441 -6442 -6443 -6444 -6445 0
-248 6446 0
-250 6446 0
249 6446 0
247 6446 0
241 6446 0
248 250 -249 -247 -241 -6446 0
-238 6447 0
-240 6447 0
239 6447 0
237 6447 0
231 6447 0
238 240 -239 -237 -231 -6447 0
-228 6448 0
-230 6448 0
229 6448 0
227 6448 0
221 6448 0
228 230 -229 -227 -221 -6448 0
-218 6449 0
-220 6449 0
219 6449 0
217 6449 0
211 6449 0
218 220 -219 -217 -211 -6449 0
-208 6450 0
-210 6450 0
209 6450 0
207 6450 0
201 6450 0
208 210 -209 -207 -201 -6450 0
-198 6451 0
-200 6451 0
199 6451 0
197 6451 0
191 6451 0
198 200 -199 -197 -191 -6451 0
-188 6452 0
-190 6452 0
189 6452 0
187 6452 0
181 6452 0
188 190 -189 -187 -181 -6452 0
-178 6453 0
-180 6453 0
179 6453 0
177 6453 0
171 6453 0
178 180 -179 -177 -171 -6453 0
-168 6454 0
-170 6454 0
169 6454 0
167 6454 0
161 6454 0
168 170 -169 -167 -161 -6454 0
-158 6455 0
-160 6455 0
159 6455 0
157 6455 0
151 6455 0
158 160 -159 -157 -151 -6455 0
-148 6456 0
-150 6456 0
149 6456 0
147 6456 0
141 6456 0
148 150 -149 -147 -141 -6456 0
-138 6457 0
-140 6457 0
139 6457 0
137 6457 0
131 6457 0
138 140 -139 -137 -131 -6457 0
-128 6458 0
-130 6458 0
129 6458 0
127 6458 0
121 6458 0
128 130 -129 -127 -121 -6458 0
-118 6459 0
-120 6459 0
119 6459 0
117 6459 0
111 6459 0
118 120 -119 -117 -111 -6459 0
-108 6460 0
-110 6460 0
109 6460 0
107 6460 0
101 6460 0
108 110 -109 -107 -101 -6460 0
-98 6461 0
-100 6461 0
99 6461 0
97 6461 0
91 6461 0
98 100 -99 -97 -91 -6461 0
-88 6462 0
-90 6462 0
89 6462 0
87 6462 0
81 6462 0
88 90 -89 -87 -81 -6462 0
-78 6463 0
-80 6463 0
79 6463 0
77 6463 0
71 6463 0
78 80 -79 -77 -71 -6463 0
-68 6464 0
-70 6464 0
69 6464 0
67 6464 0
61 6464 0
68 70 -69 -67 -61 -6464 0
-58 6465 0
-60 6465 0
59 6465 0
57 6465 0
51 6465 0
58 60 -59 -57 -51 -6465 0
-48 6466 0
-50 6466 0
49 6466 0
47 6466 0
41 6466 0
48 50 -49 -47 -41 -6466 0
-38 6467 0
-40 6467 0
39 6467 0
37 6467 0
31 6467 0
38 40 -39 -37 -31 -6467 0
-28 6468 0
-30 6468 0
29 6468 0
27 6468 0
21 6468 0
28 30 -29 -27 -21 -6468 0
-8 -18 -6446 -6447 -6448 -6449 -6450 -6451 -6452 -6453 -6454 -6455 -6456 -6457 -6458 -6459 -6460 -6461 -6462 -6463 -6464 -6465 -6466 -6467 -6468 0
-10 -18 -6446 -6447 -6448 -6449 -6450 -6451 -6452 -6453 -6454 -6455 -6456 -6457 -6458 -6459 -6460 -6461 -6462 -6463 -6464 -6465 -6466 -6467 -6468 0
9 -18 -6446 -6447 -6448 -6449 -6450 -6451 -6452 -6453 -6454 -6455 -6456 -6457 -6458 -6459 -6460 -6461 -6462 -6463 -6464 -6465 -6466 -6467 -6468 0
7 -18 -6446 -6447 -6448 -6449 -6450 -6451 -6452 -6453 -6454 -6455 -6456 -6457 -6458 -6459 -6460 -6461 -6462 -6463 -6464 -6465 -6466 -6467 -6468 0
1 -18 -6446 -6447 -6448 -6449 -6450 -6451 -6452 -6453 -6454 -6455 -6456 -6457 -6458 -6459 -6460 -6461 -6462 -6463 -6464 -6465 -6466 -6467 -6468 0
-20 -8 -6446 -6447 -6448 -6449 -6450 -6451 -6452 -6453 -6454 -6455 -6456 -6457 -6458 -6459 -6460 -6461 -6462 -6463 -6464 -6465 -6466 -6467 -6468 0
-10 -20 -6446 -6447 -6448 -6449 -6450 -6451 -6452 -6453 -6454 -6455 -6456 -6457 -6458 -6459 -6460 -6461 -6462 -6463 -6464 -6465 -6466 -6467 -6468 0
9 -20 -6446 -6447 -6448 -6449 -6450 -6451 -6452 -6453 -6454 -6455 -6456 -6457 -6458 -6459 -6460 -6461 -6462 -6463 -6464 -6465 -6466 -6467 -6468 0
7 -20 -6446 -6447 -6448 -6449 -6450 -6451 -6452 -6453 -6454 -6455 -6456 -6457 -6458 -6459 -6460 -6461 -6462 -6463 -6464 -6465 -6466 -6467 -6468 0
1 -20 -6446 -6447 -6448 -6449 -6450 -6451 -6452 -6453 -6454 -6455 -6456 -6457 -6458 -6459 -6460 -6461 -6462 -6463 -6464 -6465 -6466 -6467 -6468 0
19 -8 -6446 -6447 -6448 -6449 -6450 -6451 -6452 -6453 -6454 -6455 -6456 -6457 -6458 -6459 -6460 -6461 -6462 -6463 -6464 -6465 -6466 -6467 -6468 0
19 -10 -6446 -6447 -6448 -6449 -6450 -6451 -6452 -6453 -6454 -6455 -6456 -6457 -6458 -6459 -6460 -6461 -6462 -6463 -6464 -6465 -6466 -6467 -6468 0
9 19 -6446 -6447 -6448 -6449 -6450 -6451 -6452 -6453 -6454 -6455 -6456 -6457 -6458 -6459 -6460 -6461 -6462 -6463 -6464 -6465 -6466 -6467 -6468 0
7 19 -6446 -6447 -6448 -6449 -6450 -6451 -6452 -6453 -6454 -6455 -6456 -6457 -6458 -6459 -6460 -6461 -6462 -6463 -6464 -6465 -6466 -6467 -6468 0
1 19 -6446 -6447 -6448 -6449 -6450 -6451 -6452 -6453 -6454 -6455 -6456 -6457 -6458 -6459 -6460 -6461 -6462 -6463 -6464 -6465 -6466 -6467 -6468 0
17 -8 -6446 -6447 -6448 -6449 -6450 -6451 -6452 -6453 -6454 -6455 -6456 -6457 -6458 -6459 -6460 -6461 -6462 -6463 -6464 -6465 -6466 -6467 -6468 0
17 -10 -6446 -6447 -6448 -6449 -6450 -6451 -6452 -6453 -6454 -6455 -6456 -6457 -6458 -6459 -6460 -6461 -6462 -6463 -6464 -6465 -6466 -6467 -6468 0
9 17 -6446 -6447 -6448 -6449 -6450 -6451 -6452 -6453 -6454 -6455 -6456 -6457 -6458 -6459 -6460 -6461 -6462 -6463 -6464 -6465 -6466 -6467 -6468 0
7 17 -6446 -6447 -6448 -6449 -6450 -6451 -6452 -6453 -6454 -6455 -6456 -6457 -6458 -6459 -6460 -6461 -6462 -6463 -6464 -6465 -6466 -6467 -6468 0
1 17 -6446 -6447 -6448 -6449 -6450 -6451 -6452 -6453 -6454 -6455 -6456 -6457 -6458 -6459 -6460 -6461 -6462 -6463 -6464 -6465 -6466 -6467 -6468 0
11 -8 -6446 -6447 -6448 -6449 -6450 -6451 -6452 -6453 -6454 -6455 -6456 -6457 -6458 -6459 -6460 -6461 -6462 -6463 -6464 -6465 -6466 -6467 -6468 0
11 -10 -6446 -6447 -6448 -6449 -6450 -6451 -6452 -6453 -6454 -6455 -6456 -6457 -6458 -6459 -6460 -6461 -6462 -6463 -6464 -6465 -6466 -6467 -6468 0
9 11 -6446 -6447 -6448 -6449 -6450 -6451 -6452 -6453 -6454 -6455 -6456 -6457 -6458 -6459 -6460 -6461 -6462 -6463 -6464 -6465 -6466 -6467 -6468 0
7 11 -6446 -6447 -6448 -6449 -6450 -6451 -6452 -6453 -6454 -6455 -6456 -6457 -6458 -6459 -6460 -6461 -6462 -6463 -6464 -6465 -6466 -6467 -6468 0
1 11 -6446 -6447 -6448 -6449 -6450 -6451 -6452 -6453 -6454 -6455 -6456 -6457 -6458 -6459 -6460 -6461 -6462 -6463 -6464 -6465 -6466 -6467 -6468 0
-248 6469 0
-249 6469 0
250 6469 0
247 6469 0
241 6469 0
248 249 -250 -247 -241 -6469 0
-238 6470 0
-239 6470 0
240 6470 0
237 6470 0
231 6470 0
238 239 -240 -237 -231 -6470 0
-228 6471 0
-229 6471 0
230 6471 0
227 6471 0
221 6471 0
228 229 -230 -227 -221 -6471 0
-218 6472 0
-219 6472 0
220 6472 0
217 6472 0
211 6472 0
218 219 -220 -217 -211 -6472 0
-208 6473 0
-209 6473 0
210 6473 0
207 6473 0
201 6473 0
208 209 -210 -207 -201 -6473 0
-198 6474 0
-199 6474 0
200 6474 0
197 6474 0
191 6474 0
198 199 -200 -197 -191 -6474 0
-188 6475 0
-189 6475 0
190 6475 0
187 6475 0
181 6475 0
188 189 -190 -187 -181 -6475 0
-178 6476 0
-179 6476 0
180 6476 0
177 6476 0
171 6476 0
178 179 -180 -177 -171 -6476 0
-168 6477 0
-169 6477 0
170 6477 0
167 6477 0
161 6477 0
168 169 -170 -167 -161 -6477 0
-158 6478 0
-159 6478 0
160 6478 0
157 6478 0
151 6478 0
158 159 -160 -157 -151 -6478 0
-148 6479 0
-149 6479 0
150 6479 0
147 6479 0
141 6479 0
148 149 -150 -147 -141 -6479 0
-138 6480 0
-139 6480 0
140 6480 0
137 6480 0
131 6480 0
138 139 -140 -137 -131 -6480 0
-128 6481 0
-129 6481 0
130 6481 0
127 6481 0
121 6481 0
128 129 -130 -127 -121 -6481 0
-118 6482 0
-119 6482 0
120 6482 0
117 6482 0
111 6482 0
118 119 -120 -117 -111 -6482 0
-108 6483 0
-109 6483 0
110 6483 0
107 6483 0
101 6483 0
108 109 -110 -107 -101 -6483 0
-98 6484 0
-99 6484 0
100 6484 0
97 6484 0
91 6484 0
98 99 -100 -97 -91 -6484 0
-88 6485 0
-89 6485 0
90 6485 0
87 6485 0
81 6485 0
88 89 -90 -87 -81 -6485 0
-78 6486 0
-79 6486 0
80 6486 0
77 6486 0
71 6486 0
78 79 -80 -77 -71 -6486 0
-68 6487 0
-69 6487 0
70 6487 0
67 6487 0
61 6487 0
68 69 -70 -67 -61 -6487 0
-58 6488 0
-59 6488 0
60 6488 0
57 6488 0
51 6488 0
58 59 -60 -57 -51 -6488 0
-48 6489 0
-49 6489 0
50 6489 0
47 6489 0
41 6489 0
48 49 -50 -47 -41 -6489 0
-38 6490 0
-39 6490 0
40 6490 0
37 6490 0
31 6490 0
38 39 -40 -37 -31 -6490 0
-28 6491 0
-29 6491 0
30 6491 0
27 6491 0
21 6491 0
28 29 -30 -27 -21 -6491 0
-8 -18 -6469 -6470 -6471 -6472 -6473 -6474 -6475 -6476 -6477 -6478 -6479 -6480 -6481 -6482 -6483 -6484 -6485 -6486 -6487 -6488 -6489 -6490 -6491 0
-9 -18 -6469 -6470 -6471 -6472 -6473 -6474 -6475 -6476 -6477 -6478 -6479 -6480 -6481 -6482 -6483 -6484 -6485 -6486 -6487 -6488 -6489 -6490 -6491 0
10 -18 -6469 -6470 -6471 -6472 -6473 -6474 -6475 -6476 -6477 -6478 -6479 -6480 -6481 -6482 -6483 -6484 -6485 -6486 -6487 -6488 -6489 -6490 -6491 0
7 -18 -6469 -6470 -6471 -6472 -6473 -6474 -6475 -6476 -6477 -6478 -6479 -6480 -6481 -6482 -6483 -6484 -6485 -6486 -6487 -6488 -6489 -6490 -6491 0
1 -18 -6469 -6470 -6471 -6472 -6473 -6474 -6475 -6476 -6477 -6478 -6479 -6480 -6481 -6482 -6483 -6484 -6485 -6486 -6487 -6488 -6489 -6490 -6491 0
-19 -8 -6469 -6470 -6471 -6472 -6473 -6474 -6475 -6476 -6477 -6478 -6479 -6480 -6481 -6482 -6483 -6484 -6485 -6486 -6487 -6488 -6489 -6490 -6491 0
-9 -19 -6469 -6470 -6471 -6472 -6473 -6474 -6475 -6476 -6477 -6478 -6479 -6480 -6481 -6482 -6483 -6484 -6485 -6486 -6487 -6488 -6489 -6490 -6491 0
10 -19 -6469 -6470 -6471 -6472 -6473 -6474 -6475 -6476 -6477 -6478 -6479 -6480 -6481 -6482 -6483 -6484 -6485 -6486 -6487 -6488 -6489 -6490 -6491 0
7 -19 -6469 -6470 -6471 -6472 -6473 -6474 -6475 -6476 -6477 -6478 -6479 -6480 -6481 -6482 -6483 -6484 -6485 -6486 -6487 -6488 -6489 -6490 -6491 0
1 -19 -6469 -6470 -6471 -6472 -6473 -6474 -6475 -6476 -6477 -6478 -6479 -6480 -6481 -6482 -6483 -6484 -6485 -6486 -6487 -6488 -6489 -6490 -6491 0
20 -8 -6469 -6470 -6471 -6472 -6473 -6474 -6475 -6476 -6477 -6478 -6479 -6480 -6481 -6482 -6483 -6484 -6485 -6486 -6487 -6488 -6489 -6490 -6491 0
20 -9 -6469 -6470 -6471 -6472 -6473 -6474 -6475 -6476 -6477 -6478 -6479 -6480 -6481 -6482 -6483 -6484 -6485 -6486 -6487 -6488 -6489 -6490 -6491 0
10 20 -6469 -6470 -6471 -6472 -6473 -6474 -6475 -6476 -6477 -6478 -6479 -6480 -6481 -6482 -6483 -6484 -6485 -6486 -6487 -6488 -6489 -6490 -6491 0
7 20 -6469 -6470 -6471 -6472 -6473 -6474 -6475 -6476 -6477 -6478 -6479 -6480 -6481 -6482 -6483 -6484 -6485 -6486 -6487 -6488 -6489 -6490 -6491 0
1 20 -6469 -6470 -6471 -6472 -6473 -6474 -6475 -6476 -6477 -6478 -6479 -6480 -6481 -6482 -6483 -6484 -6485 -6486 -6487 -6488 -6489 -6490 -6491 0
17 -8 -6469 -6470 -6471 -6472 -6473 -6474 -6475 -6476 -6477 -6478 -6479 -6480 -6481 -6482 -6483 -6484 -6485 -6486 -6487 -6488 -6489 -6490 -6491 0
17 -9 -6469 -6470 -6471 -6472 -6473 -6474 -6475 -6476 -6477 -6478 -6479 -6480 -6481 -6482 -6483 -6484 -6485 -6486 -6487 -6488 -6489 -6490 -6491 0
10 17 -6469 -6470 -6471 -6472 -6473 -6474 -6475 -6476 -6477 -6478 -6479 -6480 -6481 -6482 -6483 -6484 -6485 -6486 -6487 -6488 -6489 -6490 -6491 0
7 17 -6469 -6470 -6471 -6472 -6473 -6474 -6475 -6476 -6477 -6478 -6479 -6480 -6481 -6482 -6483 -6484 -6485 -6486 -6487 -6488 -6489 -6490 -6491 0
1 17 -6469 -6470 -6471 -6472 -6473 -6474 -6475 -6476 -6477 -6478 -6479 -6480 -6481 -6482 -6483 -6484 -6485 -6486 -6487 -6488 -6489 -6490 -6491 0
11 -8 -6469 -6470 -6471 -6472 -6473 -6474 -6475 -6476 -6477 -6478 -6479 -6480 -6481 -6482 -6483 -6484 -6485 -6486 -6487 -6488 -6489 -6490 -6491 0
11 -9 -6469 -6470 -6471 -6472 -6473 -6474 -6475 -6476 -6477 -6478 -6479 -6480 -6481 -6482 -6483 -6484 -6485 -6486 -6487 -6488 -6489 -6490 -6491 0
10 11 -6469 -6470 -6471 -6472 -6473 -6474 -6475 -6476 -6477 -6478 -6479 -6480 -6481 -6482 -6483 -6484 -6485 -6486 -6487 -6488 -6489 -6490 -6491 0
7 11 -6469 -6470 -6471 -6472 -6473 -6474 -6475 -6476 -6477 -6478 -6479 -6480 -6481 -6482 -6483 -6484 -6485 -6486 -6487 -6488 -6489 -6490 -6491 0
1 11 -6469 -6470 -6471 -6472 -6473 -6474 -6475 -6476 -6477 -6478 -6479 -6480 -6481 -6482 -6483 -6484 -6485 -6486 -6487 -6488 -6489 -6490 -6491 0
-247 6492 0
-250 6492 0
249 6492 0
248 6492 0
241 6492 0
247 250 -249 -248 -241 -6492 0
-237 6493 0
-240 6493 0
239 6493 0
238 6493 0
231 6493 0
237 240 -239 -238 -231 -6493 0
-227 6494 0
-230 6494 0
229 6494 0
228 6494 0
221 6494 0
227 230 -229 -228 -221 -6494 0
-217 6495 0
-220 6495 0
219 6495 0
218 6495 0
211 6495 0
217 220 -219 -218 -211 -6495 0
-207 6496 0
-210 6496 0
209 6496 0
208 6496 0
201 6496 0
207 210 -209 -208 -201 -6496 0
-197 6497 0
-200 6497 0
199 6497 0
198 6497 0
191 6497 0
197 200 -199 -198 -191 -6497 0
-187 6498 0
-190 6498 0
189 6498 0
188 6498 0
181 6498 0
187 190 -189 -188 -181 -6498 0
-177 6499 0
-180 6499 0
179 6499 0
178 6499 0
171 6499 0
177 180 -179 -178 -171 -6499 0
-167 6500 0
-170 6500 0
169 6500 0
168 6500 0
161 6500 0
167 170 -169 -168 -161 -6500 0
-157 6501 0
-160 6501 0
159 6501 0
158 6501 0
151 6501 0
157 160 -159 -158 -151 -6501 0
-147 6502 0
-150 6502 0
149 6502 0
148 6502 0
141 6502 0
147 150 -149 -148 -141 -6502 0
-137 6503 0
-140 6503 0
139 6503 0
138 6503 0
131 6503 0
137 140 -139 -138 -131 -6503 0
-127 6504 0
-130 6504 0
129 6504 0
128 6504 0
121 6504 0
127 130 -129 -128 -121 -6504 0
-117 6505 0
-120 6505 0
119 6505 0
118 6505 0
111 6505 0
117 120 -119 -118 -111 -6505 0
-107 6506 0
-110 6506 0
109 6506 0
108 6506 0
101 6506 0
107 110 -109 -108 -101 -6506 0
-97 6507 0
-100 6507 0
99 6507 0
98 6507 0
91 6507 0
97 100 -99 -98 -91 -6507 0
-87 6508 0
-90 6508 0
89 6508 0
88 6508 0
81 6508 0
87 90 -89 -88 -81 -6508 0
-77 6509 0
-80 6509 0
79 6509 0
78 6509 0
71 6509 0
77 80 -79 -78 -71 -6509 0
-67 6510 0
-70 6510 0
69 6510 0
68 6510 0
61 6510 0
67 70 -69 -68 -61 -6510 0
-57 6511 0
-60 6511 0
59 6511 0
58 6511 0
51 6511 0
57 60 -59 -58 -51 -6511 0
-47 6512 0
-50 6512 0
49 6512 0
48 6512 0
41 6512 0
47 50 -49 -48 -41 -6512 0
-37 6513 0
-40 6513 0
39 6513 0
38 6513 0
31 6513 0
37 40 -39 -38 -31 -6513 0
-27 6514 0
-30 6514 0
29 6514 0
28 6514 0
21 6514 0
27 30 -29 -28 -21 -6514 0
-7 -17 -6492 -6493 -6494 -6495 -6496 -6497 -6498 -6499 -6500 -6501 -6502 -6503 -6504 -6505 -6506 -6507 -6508 -6509 -6510 -6511 -6512 -6513 -6514 0
-10 -17 -6492 -6493 -6494 -6495 -6496 -6497 -6498 -6499 -6500 -6501 -6502 -6503 -6504 -6505 -6506 -6507 -6508 -6509 -6510 -6511 -6512 -6513 -6514 0
9 -17 -6492 -6493 -6494 -6495 -6496 -6497 -6498 -6499 -6500 -6501 -6502 -6503 -6504 -6505 -6506 -6507 -6508 -6509 -6510 -6511 -6512 -6513 -6514 0
8 -17 -6492 -6493 -6494 -6495 -6496 -6497 -6498 -6499 -6500 -6501 -6502 -6503 -6504 -6505 -6506 -6507 -6508 -6509 -6510 -6511 -6512 -6513 -6514 0
1 -17 -6492 -6493 -6494 -6495 -6496 -6497 -6498 -6499 -6500 -6501 -6502 -6503 -6504 -6505 -6506 -6507 -6508 -6509 -6510 -6511 -6512 -6513 -6514 0
-20 -7 -6492 -6493 -6494 -6495 -6496 -6497 -6498 -6499 -6500 -6501 -6502 -6503 -6504 -6505 -6506 -6507 -6508 -6509 -6510 -6511 -6512 -6513 -6514 0
-10 -20 -6492 -6493 -6494 -6495 -6496 -6497 -6498 -6499 -6500 -6501 -6502 -6503 -6504 -6505 -6506 -6507 -6508 -6509 -6510 -6511 -6512 -6513 -6514 0
9 -20 -6492 -6493 -6494 -6495 -6496 -6497 -6498 -6499 -6500 -6501 -6502 -6503 -6504 -6505 -6506 -6507 -6508 -6509 -6510 -6511 -6512 -6513 -6514 0
8 -20 -6492 -6493 -6494 -6495 -6496 -6497 -6498 -6499 -6500 -6501 -6502 -6503 -6504 -6505 -6506 -6507 -6508 -6509 -6510 -6511 -6512 -6513 -6514 0
1 -20 -6492 -6493 -6494 -6495 -6496 -6497 -6498 -6499 -6500 -6501 -6502 -6503 -6504 -6505 -6506 -6507 -6508 -6509 -6510 -6511 -6512 -6513 -6514 0
19 -7 -6492 -6493 -6494 -6495 -6496 -6497 -6498 -6499 -6500 -6501 -6502 -6503 -6504 -6505 -6506 -6507 -6508 -6509 -6510 -6511 -6512 -6513 -6514 0
19 -10 -6492 -6493 -6494 -6495 -6496 -6497 -6498 -6499 -6500 -6501 -6502 -6503 -6504 -6505 -6506 -6507 -6508 -6509 -6510 -6511 -6512 -6513 -6514 0
9 19 -6492 -6493 -6494 -6495 -6496 -6497 -6498 -6499 -6500 -6501 -6502 -6503 -6504 -6505 -6506 -6507 -6508 -6509 -6510 -6511 -6512 -6513 -6514 0
8 19 -6492 -6493 -6494 -6495 -6496 -6497 -6498 -6499 -6500 -6501 -6502 -6503 -6504 -6505 -6506 -6507 -6508 -6509 -6510 -6511 -6512 -6513 -6514 0
1 19 -6492 -6493 -6494 -6495 -6496 -6497 -6498 -6499 -6500 -6501 -6502 -6503 -6504 -6505 -6506 -6507 -6508 -6509 -6510 -6511 -6512 -6513 -6514 0
18 -7 -6492 -6493 -6494 -6495 -6496 -6497 -6498 -6499 -6500 -6501 -6502 -6503 -6504 -6505 -6506 -6507 -6508 -6509 -6510 -6511 -6512 -6513 -6514 0
18 -10 -6492 -6493 -6494 -6495 -6496 -6497 -6498 -6499 -6500 -6501 -6502 -6503 -6504 -6505 -6506 -6507 -6508 -6509 -6510 -6511 -6512 -6513 -6514 0
9 18 -6492 -6493 -6494 -6495 -6496 -6497 -6498 -6499 -6500 -6501 -6502 -6503 -6504 -6505 -6506 -6507 -6508 -6509 -6510 -6511 -6512 -6513 -6514 0
8 18 -6492 -6493 -6494 -6495 -6496 -6497 -6498 -6499 -6500 -6501 -6502 -6503 -6504 -6505 -6506 -6507 -6508 -6509 -6510 -6511 -6512 -6513 -6514 0
1 18 -6492 -6493 -6494 -6495 -6496 -6497 -6498 -6499 -6500 -6501 -6502 -6503 -6504 -6505 -6506 -6507 -6508 -6509 -6510 -6511 -6512 -6513 -6514 0
11 -7 -6492 -6493 -6494 -6495 -6496 -6497 -6498 -6499 -6500 -6501 -6502 -6503 -6504 -6505 -6506 -6507 -6508 -6509 -6510 -6511 -6512 -6513 -6514 0
11 -10 -6492 -6493 -6494 -6495 -6496 -6497 -6498 -6499 -6500 -6501 -6502 -6503 -6504 -6505 -6506 -6507 -6508 -6509 -6510 -6511 -6512 -6513 -6514 0
9 11 -6492 -6493 -6494 -6495 -6496 -6497 -6498 -6499 -6500 -6501 -6502 -6503 -6504 -6505 -6506 -6507 -6508 -6509 -6510 -6511 -6512 -6513 -6514 0
8 11 -6492 -6493 -6494 -6495 -6496 -6497 -6498 -6499 -6500 -6501 -6502 -6503 -6504 -6505 -6506 -6507 -6508 -6509 -6510 -6511 -6512 -6513 -6514 0
1 11 -6492 -6493 -6494 -6495 -6496 -6497 -6498 -6499 -6500 -6501 -6502 -6503 -6504 -6505 -6506 -6507 -6508 -6509 -6510 -6511 -6512 -6513 -6514 0
-247 6515 0
-249 6515 0
250 6515 0
248 6515 0
241 6515 0
247 249 -250 -248 -241 -6515 0
-237 6516 0
-239 6516 0
240 6516 0
238 6516 0
231 6516 0
237 239 -240 -238 -231 -6516 0
-227 6517 0
-229 6517 0
230 6517 0
228 6517 0
221 6517 0
227 229 -230 -228 -221 -6517 0
-217 6518 0
-219 6518 0
220 6518 0
218 6518 0
211 6518 0
217 219 -220 -218 -211 -6518 0
-207 6519 0
-209 6519 0
210 6519 0
208 6519 0
201 6519 0
207 209 -210 -208 -201 -6519 0
-197 6520 0
-199 6520 0
200 6520 0
198 6520 0
191 6520 0
197 199 -200 -198 -191 -6520 0
-187 6521 0
-189 6521 0
190 6521 0
188 6521 0
181 6521 0
187 189 -190 -188 -181 -6521 0
-177 6522 0
-179 6522 0
180 6522 0
178 6522 0
171 6522 0
177 179 -180 -178 -171 -6522 0
-167 6523 0
-169 6523 0
170 6523 0
168 6523 0
161 6523 0
167 169 -170 -168 -161 -6523 0
-157 6524 0
-159 6524 0
160 6524 0
158 6524 0
151 6524 0
157 159 -160 -158 -151 -6524 0
-147 6525 0
-149 6525 0
150 6525 0
148 6525 0
141 6525 0
147 149 -150 -148 -141 -6525 0
-137 6526 0
-139 6526 0
140 6526 0
138 6526 0
131 6526 0
137 139 -140 -138 -131 -6526 0
-127 6527 0
-129 6527 0
130 6527 0
128 6527 0
121 6527 0
127 129 -130 -128 -121 -6527 0
-117 6528 0
-119 6528 0
120 6528 0
118 6528 0
111 6528 0
117 119 -120 -118 -111 -6528 0
-107 6529 0
-109 6529 0
110 6529 0
108 6529 0
101 6529 0
107 109 -110 -108 -101 -6529 0
-97 6530 0
-99 6530 0
100 6530 0
98 6530 0
91 6530 0
97 99 -100 -98 -91 -6530 0
-87 6531 0
-89 6531 0
90 6531 0
88 6531 0
81 6531 0
87 89 -90 -88 -81 -6531 0
-77 6532 0
-79 6532 0
80 6532 0
78 6532 0
71 6532 0
77 79 -80 -78 -71 -6532 0
-67 6533 0
-69 6533 0
70 6533 0
68 6533 0
61 6533 0
67 69 -70 -68 -61 -6533 0
-57 6534 0
-59 6534 0
60 6534 0
58 6534 0
51 6534 0
57 59 -60 -58 -51 -6534 0
-47 6535 0
-49 6535 0
50 6535 0
48 6535 0
41 6535 0
47 49 -50 -48 -41 -6535 0
-37 6536 0
-39 6536 0
40 6536 0
38 6536 0
31 6536 0
37 39 -40 -38 -31 -6536 0
-27 6537 0
-29 6537 0
30 6537 0
28 6537 0
21 6537 0
27 29 -30 -28 -21 -6537 0
-7 -17 -6515 -6516 -6517 -6518 -6519 -6520 -6521 -6522 -6523 -6524 -6525 -6526 -6527 -6528 -6529 -6530 -6531 -6532 -6533 -6534 -6535 -6536 -6537 0
-9 -17 -6515 -6516 -6517 -6518 -6519 -6520 -6521 -6522 -6523 -6524 -6525 -6526 -6527 -6528 -6529 -6530 -6531 -6532 -6533 -6534 -6535 -6536 -6537 0
10 -17 -6515 -6516 -6517 -6518 -6519 -6520 -6521 -6522 -6523 -6524 -6525 -6526 -6527 -6528 -6529 -6530 -6531 -6532 -6533 -6534 -6535 -6536 -6537 0
8 -17 -6515 -6516 -6517 -6518 -6519 -6520 -6521 -6522 -6523 -6524 -6525 -6526 -6527 -6528 -6529 -6530 -6531 -6532 -6533 -6534 -6535 -6536 -6537 0
1 -17 -6515 -6516 -6517 -6518 -6519 -6520 -6521 -6522 -6523 -6524 -6525 -6526 -6527 -6528 -6529 -6530 -6531 -6532 -6533 -6534 -6535 -6536 -6537 0
-19 -7 -6515 -6516 -6517 -6518 -6519 -6520 -6521 -6522 -6523 -6524 -6525 -6526 -6527 -6528 -6529 -6530 -6531 -6532 -6533 -6534 -6535 -6536 -6537 0
-9 -19 -6515 -6516 -6517 -6518 -6519 -6520 -6521 -6522 -6523 -6524 -6525 -6526 -6527 -6528 -6529 -6530 -6531 -6532 -6533 -6534 -6535 -6536 -6537 0
10 -19 -6515 -6516 -6517 -6518 -6519 -6520 -6521 -6522 -6523 -6524 -6525 -6526 -6527 -6528 -6529 -6530 -6531 -6532 -6533 -6534 -6535 -6536 -6537 0
8 -19 -6515 -6516 -6517 -6518 -6519 -6520 -6521 -6522 -6523 -6524 -6525 -6526 -6527 -6528 -6529 -6530 -6531 -6532 -6533 -6534 -6535 -6536 -6537 0
1 -19 -6515 -6516 -6517 -6518 -6519 -6520 -6521 -6522 -6523 -6524 -6525 -6526 -6527 -6528 -6529 -6530 -6531 -6532 -6533 -6534 -6535 -6536 -6537 0
20 -7 -6515 -6516 -6517 -6518 -6519 -6520 -6521 -6522 -6523 -6524 -6525 -6526 -6527 -6528 -6529 -6530 -6531 -6532 -6533 -6534 -6535 -6536 -6537 0
20 -9 -6515 -6516 -6517 -6518 -6519 -6520 -6521 -6522 -6523 -6524 -6525 -6526 -6527 -6528 -6529 -6530 -6531 -6532 -6533 -6534 -6535 -6536 -6537 0
10 20 -6515 -6516 -6517 -6518 -6519 -6520 -6521 -6522 -6523 -6524 -6525 -6526 -6527 -6528 -6529 -6530 -6531 -6532 -6533 -6534 -6535 -6536 -6537 0
8 20 -6515 -6516 -6517 -6518 -6519 -6520 -6521 -6522 -6523 -6524 -6525 -6526 -6527 -6528 -6529 -6530 -6531 -6532 -6533 -6534 -6535 -6536 -6537 0
1 20 -6515 -6516 -6517 -6518 -6519 -6520 -6521 -6522 -6523 -6524 -6525 -6526 -6527 -6528 -6529 -6530 -6531 -6532 -6533 -6534 -6535 -6536 -6537 0
18 -7 -6515 -6516 -6517 -6518 -6519 -6520 -6521 -6522 -6523 -6524 -6525 -6526 -6527 -6528 -6529 -6530 -6531 -6532 -6533 -6534 -6535 -6536 -6537 0
18 -9 -6515 -6516 -6517 -6518 -6519 -6520 -6521 -6522 -6523 -6524 -6525 -6526 -6527 -6528 -6529 -6530 -6531 -6532 -6533 -6534 -6535 -6536 -6537 0
10 18 -6515 -6516 -6517 -6518 -6519 -6520 -6521 -6522 -6523 -6524 -6525 -6526 -6527 -6528 -6529 -6530 -6531 -6532 -6533 -6534 -6535 -6536 -6537 0
8 18 -6515 -6516 -6517 -6518 -6519 -6520 -6521 -6522 -6523 -6524 -6525 -6526 -6527 -6528 -6529 -6530 -6531 -6532 -6533 -6534 -6535 -6536 -6537 0
1 18 -6515 -6516 -6517 -6518 -6519 -6520 -6521 -6522 -6523 -6524 -6525 -6526 -6527 -6528 -6529 -6530 -6531 -6532 -6533 -6534 -6535 -6536 -6537 0
11 -7 -6515 -6516 -6517 -6518 -6519 -6520 -6521 -6522 -6523 -6524 -6525 -6526 -6527 -6528 -6529 -6530 -6531 -6532 -6533 -6534 -6535 -6536 -6537 0
11 -9 -6515 -6516 -6517 -6518 -6519 -6520 -6521 -6522 -6523 -6524 -6525 -6526 -6527 -6528 -6529 -6530 -6531 -6532 -6533 -6534 -6535 -6536 -6537 0
10 11 -6515 -6516 -6517 -6518 -6519 -6520 -6521 -6522 -6523 -6524 -6525 -6526 -6527 -6528 -6529 -6530 -6531 -6532 -6533 -6534 -6535 -6536 -6537 0
8 11 -6515 -6516 -6517 -6518 -6519 -6520 -6521 -6522 -6523 -6524 -6525 -6526 -6527 -6528 -6529 -6530 -6531 -6532 -6533 -6534 -6535 -6536 -6537 0
1 11 -6515 -6516 -6517 -6518 -6519 -6520 -6521 -6522 -6523 -6524 -6525 -6526 -6527 -6528 -6529 -6530 -6531 -6532 -6533 -6534 -6535 -6536 -6537 0
-247 6538 0
-248 6538 0
249 6538 0
250 6538 0
241 6538 0
247 248 -249 -250 -241 -6538 0
-237 6539 0
-238 6539 0
239 6539 0
240 6539 0
231 6539 0
237 238 -239 -240 -231 -6539 0
-227 6540 0
-228 6540 0
229 6540 0
230 6540 0
221 6540 0
227 228 -229 -230 -221 -6540 0
-217 6541 0
-218 6541 0
219 6541 0
220 6541 0
211 6541 0
217 218 -219 -220 -211 -6541 0
-207 6542 0
-208 6542 0
209 6542 0
210 6542 0
201 6542 0
207 208 -209 -210 -201 -6542 0
-197 6543 0
-198 6543 0
199 6543 0
200 6543 0
191 6543 0
197 198 -199 -200 -191 -6543 0
-187 6544 0
-188 6544 0
189 6544 0
190 6544 0
181 6544 0
187 188 -189 -190 -181 -6544 0
-177 6545 0
-178 6545 0
179 6545 0
180 6545 0
171 6545 0
177 178 -179 -180 -171 -6545 0
-167 6546 0
-168 6546 0
169 6546 0
170 6546 0
161 6546 0
167 168 -169 -170 -161 -6546 0
-157 6547 0
-158 6547 0
159 6547 0
160 6547 0
151 6547 0
157 158 -159 -160 -151 -6547 0
-147 6548 0
-148 6548 0
149 6548 0
150 6548 0
141 6548 0
147 148 -149 -150 -141 -6548 0
-137 6549 0
-138 6549 0
139 6549 0
140 6549 0
131 6549 0
137 138 -139 -140 -131 -6549 0
-127 6550 0
-128 6550 0
129 6550 0
130 6550 0
121 6550 0
127 128 -129 -130 -121 -6550 0
-117 6551 0
-118 6551 0
119 6551 0
120 6551 0
111 6551 0
117 118 -119 -120 -111 -6551 0
-107 6552 0
-108 6552 0
109 6552 0
110 6552 0
101 6552 0
107 108 -109 -110 -101 -6552 0
-97 6553 0
-98 6553 0
99 6553 0
100 6553 0
91 6553 0
97 98 -99 -100 -91 -6553 0
-87 6554 0
-88 6554 0
89 6554 0
90 6554 0
81 6554 0
87 88 -89 -90 -81 -6554 0
-77 6555 0
-78 6555 0
79 6555 0
80 6555 0
71 6555 0
77 78 -79 -80 -71 -6555 0
-67 6556 0
-68 6556 0
69 6556 0
70 6556 0
61 6556 0
67 68 -69 -70 -61 -6556 0
-57 6557 0
-58 6557 0
59 6557 0
60 6557 0
51 6557 0
57 58 -59 -60 -51 -6557 0
-47 6558 0
-48 6558 0
49 6558 0
50 6558 0
41 6558 0
47 48 -49 -50 -41 -6558 0
-37 6559 0
-38 6559 0
39 6559 0
40 6559 0
31 6559 0
37 38 -39 -40 -31 -6559 0
-27 6560 0
-28 6560 0
29 6560 0
30 6560 0
21 6560 0
27 28 -29 -30 -21 -6560 0
-7 -17 -6538 -6539 -6540 -6541 -6542 -6543 -6544 -6545 -6546 -6547 -6548 -6549 -6550 -6551 -6552 -6553 -6554 -6555 -6556 -6557 -6558 -6559 -6560 0
-8 -17 -6538 -6539 -6540 -6541 -6542 -6543 -6544 -6545 -6546 -6547 -6548 -6549 -6550 -6551 -6552 -6553 -6554 -6555 -6556 -6557 -6558 -6559 -6560 0
9 -17 -6538 -6539 -6540 -6541 -6542 -6543 -6544 -6545 -6546 -6547 -6548 -6549 -6550 -6551 -6552 -6553 -6554 -6555 -6556 -6557 -6558 -6559 -6560 0
10 -17 -6538 -6539 -6540 -6541 -6542 -6543 -6544 -6545 -6546 -6547 -6548 -6549 -6550 -6551 -6552 -6553 -6554 -6555 -6556 -6557 -6558 -6559 -6560 0
1 -17 -6538 -6539 -6540 -6541 -6542 -6543 -6544 -6545 -6546 -6547 -6548 -6549 -6550 -6551 -6552 -6553 -6554 -6555 -6556 -6557 -6558 -6559 -6560 0
-18 -7 -6538 -6539 -6540 -6541 -6542 -6543 -6544 -6545 -6546 -6547 -6548 -6549 -6550 -6551 -6552 -6553 -6554 -6555 -6556 -6557 -6558 -6559 -6560 0
-8 -18 -6538 -6539 -6540 -6541 -6542 -6543 -6544 -6545 -6546 -6547 -6548 -6549 -6550 -6551 -6552 -6553 -6554 -6555 -6556 -6557 -6558 -6559 -6560 0
9 -18 -6538 -6539 -6540 -6541 -6542 -6543 -6544 -6545 -6546 -6547 -6548 -6549 -6550 -6551 -6552 -6553 -6554 -6555 -6556 -6557 -6558 -6559 -6560 0
10 -18 -6538 -6539 -6540 -6541 -6542 -6543 -6544 -6545 -6546 -6547 -6548 -6549 -6550 -6551 -6552 -6553 -6554 -6555 -6556 -6557 -6558 -6559 -6560 0
1 -18 -6538 -6539 -6540 -6541 -6542 -6543 -6544 -6545 -6546 -6547 -6548 -6549 -6550 -6551 -6552 -6553 -6554 -6555 -6556 -6557 -6558 -6559 -6560 0
19 -7 -6538 -6539 -6540 -6541 -6542 -6543 -6544 -6545 -6546 -6547 -6548 -6549 -6550 -6551 -6552 -6553 -6554 -6555 -6556 -6557 -6558 -6559 -6560 0
19 -8 -6538 -6539 -6540 -6541 -6542 -6543 -6544 -6545 -6546 -6547 -6548 -6549 -6550 -6551 -6552 -6553 -6554 -6555 -6556 -6557 -6558 -6559 -6560 0
9 19 -6538 -6539 -6540 -6541 -6542 -6543 -6544 -6545 -6546 -6547 -6548 -6549 -6550 -6551 -6552 -6553 -6554 -6555 -6556 -6557 -6558 -6559 -6560 0
10 19 -6538 -6539 -6540 -6541 -6542 -6543 -6544 -6545 -6546 -6547 -6548 -6549 -6550 -6551 -6552 -6553 -6554 -6555 -6556 -6557 -6558 -6559 -6560 0
1 19 -6538 -6539 -6540 -6541 -6542 -6543 -6544 -6545 -6546 -6547 -6548 -6549 -6550 -6551 -6552 -6553 -6554 -6555 -6556 -6557 -6558 -6559 -6560 0
20 -7 -6538 -6539 -6540 -6541 -6542 -6543 -6544 -6545 -6546 -6547 -6548 -6549 -6550 -6551 -6552 -6553 -6554 -6555 -6556 -6557 -6558 -6559 -6560 0
20 -8 -6538 -6539 -6540 -6541 -6542 -6543 -6544 -6545 -6546 -6547 -6548 -6549 -6550 -6551 -6552 -6553 -6554 -6555 -6556 -6557 -6558 -6559 -6560 0
9 20 -6538 -6539 -6540 -6541 -6542 -6543 -6544 -6545 -6546 -6547 -6548 -6549 -6550 -6551 -6552 -6553 -6554 -6555 -6556 -6557 -6558 -6559 -6560 0
10 20 -6538 -6539 -6540 -6541 -6542 -6543 -6544 -6545 -6546 -6547 -6548 -6549 -6550 -6551 -6552 -6553 -6554 -6555 -6556 -6557 -6558 -6559 -6560 0
1 20 -6538 -6539 -6540 -6541 -6542 -6543 -6544 -6545 -6546 -6547 -6548 -6549 -6550 -6551 -6552 -6553 -6554 -6555 -6556 -6557 -6558 -6559 -6560 0
11 -7 -6538 -6539 -6540 -6541 -6542 -6543 -6544 -6545 -6546 -6547 -6548 -6549 -6550 -6551 -6552 -6553 -6554 -6555 -6556 -6557 -6558 -6559 -6560 0
11 -8 -6538 -6539 -6540 -6541 -6542 -6543 -6544 -6545 -6546 -6547 -6548 -6549 -6550 -6551 -6552 -6553 -6554 -6555 -6556 -6557 -6558 -6559 -6560 0
9 11 -6538 -6539 -6540 -6541 -6542 -6543 -6544 -6545 -6546 -6547 -6548 -6549 -6550 -6551 -6552 -6553 -6554 -6555 -6556 -6557 -6558 -6559 -6560 0
10 11 -6538 -6539 -6540 -6541 -6542 -6543 -6544 -6545 -6546 -6547 -6548 -6549 -6550 -6551 -6552 -6553 -6554 -6555 -6556 -6557 -6558 -6559 -6560 0
1 11 -6538 -6539 -6540 -6541 -6542 -6543 -6544 -6545 -6546 -6547 -6548 -6549 -6550 -6551 -6552 -6553 -6554 -6555 -6556 -6557 -6558 -6559 -6560 0
-241 6561 0
-250 6561 0
249 6561 0
248 6561 0
247 6561 0
241 250 -249 -248 -247 -6561 0
-231 6562 0
-240 6562 0
239 6562 0
238 6562 0
237 6562 0
231 240 -239 -238 -237 -6562 0
-221 6563 0
-230 6563 0
229 6563 0
228 6563 0
227 6563 0
221 230 -229 -228 -227 -6563 0
-211 6564 0
-220 6564 0
219 6564 0
218 6564 0
217 6564 0
211 220 -219 -218 -217 -6564 0
-201 6565 0
-210 6565 0
209 6565 0
208 6565 0
207 6565 0
201 210 -209 -208 -207 -6565 0
-191 6566 0
-200 6566 0
199 6566 0
198 6566 0
197 6566 0
191 200 -199 -198 -197 -6566 0
-181 6567 0
-190 6567 0
189 6567 0
188 6567 0
187 6567 0
181 190 -189 -188 -187 -6567 0
-171 6568 0
-180 6568 0
179 6568 0
178 6568 0
177 6568 0
171 180 -179 -178 -177 -6568 0
-161 6569 0
-170 6569 0
169 6569 0
168 6569 0
167 6569 0
161 170 -169 -168 -167 -6569 0
-151 6570 0
-160 6570 0
159 6570 0
158 6570 0
157 6570 0
151 160 -159 -158 -157 -6570 0
-141 6571 0
-150 6571 0
149 6571 0
148 6571 0
147 6571 0
141 150 -149 -148 -147 -6571 0
-131 6572 0
-140 6572 0
139 6572 0
138 6572 0
137 6572 0
131 140 -139 -138 -137 -6572 0
-121 6573 0
-130 6573 0
129 6573 0
128 6573 0
127 6573 0
121 130 -129 -128 -127 -6573 0
-111 6574 0
-120 6574 0
119 6574 0
118 6574 0
117 6574 0
111 120 -119 -118 -117 -6574 0
-101 6575 0
-110 6575 0
109 6575 0
108 6575 0
107 6575 0
101 110 -109 -108 -107 -6575 0
-91 6576 0
-100 6576 0
99 6576 0
98 6576 0
97 6576 0
91 100 -99 -98 -97 -6576 0
-81 6577 0
-90 6577 0
89 6577 0
88 6577 0
87 6577 0
81 90 -89 -88 -87 -6577 0
-71 6578 0
-80 6578 0
79 6578 0
78 6578 0
77 6578 0
71 80 -79 -78 -77 -6578 0
-61 6579 0
-70 6579 0
69 6579 0
68 6579 0
67 6579 0
61 70 -69 -68 -67 -6579 0
-51 6580 0
-60 6580 0
59 6580 0
58 6580 0
57 6580 0
51 60 -59 -58 -57 -6580 0
-41 6581 0
-50 6581 0
49 6581 0
48 6581 0
47 6581 0
41 50 -49 -48 -47 -6581 0
-31 6582 0
-40 6582 0
39 6582 0
38 6582 0
37 6582 0
31 40 -39 -38 -37 -6582 0
-21 6583 0
-30 6583 0
29 6583 0
28 6583 0
27 6583 0
21 30 -29 -28 -27 -6583 0
-1 -11 -6561 -6562 -6563 -6564 -6565 -6566 -6567 -6568 -6569 -6570 -6571 -6572 -6573 -6574 -6575 -6576 -6577 -6578 -6579 -6580 -6581 -6582 -6583 0
-10 -11 -6561 -6562 -6563 -6564 -6565 -6566 -6567 -6568 -6569 -6570 -6571 -6572 -6573 -6574 -6575 -6576 -6577 -6578 -6579 -6580 -6581 -6582 -6583 0
9 -11 -6561 -6562 -6563 -6564 -6565 -6566 -6567 -6568 -6569 -6570 -6571 -6572 -6573 -6574 -6575 -6576 -6577 -6578 -6579 -6580 -6581 -6582 -6583 0
8 -11 -6561 -6562 -6563 -6564 -6565 -6566 -6567 -6568 -6569 -6570 -6571 -6572 -6573 -6574 -6575 -6576 -6577 -6578 -6579 -6580 -6581 -6582 -6583 0
7 -11 -6561 -6562 -6563 -6564 -6565 -6566 -6567 -6568 -6569 -6570 -6571 -6572 -6573 -6574 -6575 -6576 -6577 -6578 -6579 -6580 -6581 -6582 -6583 0
-20 -1 -6561 -6562 -6563 -6564 -6565 -6566 -6567 -6568 -6569 -6570 -6571 -6572 -6573 -6574 -6575 -6576 -6577 -6578 -6579 -6580 -6581 -6582 -6583 0
-10 -20 -6561 -6562 -6563 -6564 -6565 -6566 -6567 -6568 -6569 -6570 -6571 -6572 -6573 -6574 -6575 -6576 -6577 -6578 -6579 -6580 -6581 -6582 -6583 0
9 -20 -6561 -6562 -6563 -6564 -6565 -6566 -6567 -6568 -6569 -6570 -6571 -6572 -6573 -6574 -6575 -6576 -6577 -6578 -6579 -6580 -6581 -6582 -6583 0
8 -20 -6561 -6562 -6563 -6564 -6565 -6566 -6567 -6568 -6569 -6570 -6571 -6572 -6573 -6574 -6575 -6576 -6577 -6578 -6579 -6580 -6581 -6582 -6583 0
7 -20 -6561 -6562 -6563 -6564 -6565 -6566 -6567 -6568 -6569 -6570 -6571 -6572 -6573 -6574 -6575 -6576 -6577 -6578 -6579 -6580 -6581 -6582 -6583 0
19 -1 -6561 -6562 -6563 -6564 -6565 -6566 -6567 -6568 -6569 -6570 -6571 -6572 -6573 -6574 -6575 -6576 -6577 -6578 -6579 -6580 -6581 -6582 -6583 0
19 -10 -6561 -6562 -6563 -6564 -6565 -6566 -6567 -6568 -6569 -6570 -6571 -6572 -6573 -6574 -6575 -6576 -6577 -6578 -6579 -6580 -6581 -6582 -6583 0
9 19 -6561 -6562 -6563 -6564 -6565 -6566 -6567 -6568 -6569 -6570 -6571 -6572 -6573 -6574 -6575 -6576 -6577 -6578 -6579 -6580 -6581 -6582 -6583 0
8 19 -6561 -6562 -6563 -6564 -6565 -6566 -6567 -6568 -6569 -6570 -6571 -6572 -6573 -6574 -6575 -6576 -6577 -6578 -6579 -6580 -6581 -6582 -6583 0
7 19 -6561 -6562 -6563 -6564 -6565 -6566 -6567 -6568 -6569 -6570 -6571 -6572 -6573 -6574 -6575 -6576 -6577 -6578 -6579 -6580 -6581 -6582 -6583 0
18 -1 -6561 -6562 -6563 -6564 -6565 -6566 -6567 -6568 -6569 -6570 -6571 -6572 -6573 -6574 -6575 -6576 -6577 -6578 -6579 -6580 -6581 -6582 -6583 0
18 -10 -6561 -6562 -6563 -6564 -6565 -6566 -6567 -6568 -6569 -6570 -6571 -6572 -6573 -6574 -6575 -6576 -6577 -6578 -6579 -6580 -6581 -6582 -6583 0
9 18 -6561 -6562 -6563 -6564 -6565 -6566 -6567 -6568 -6569 -6570 -6571 -6572 -6573 -6574 -6575 -6576 -6577 -6578 -6579 -6580 -6581 -6582 -6583 0
8 18 -6561 -6562 -6563 -6564 -6565 -6566 -6567 -6568 -6569 -6570 -6571 -6572 -6573 -6574 -6575 -6576 -6577 -6578 -6579 -6580 -6581 -6582 -6583 0
7 18 -6561 -6562 -6563 -6564 -6565 -6566 -6567 -6568 -6569 -6570 -6571 -6572 -6573 -6574 -6575 -6576 -6577 -6578 -6579 -6580 -6581 -6582 -6583 0
17 -1 -6561 -6562 -6563 -6564 -6565 -6566 -6567 -6568 -6569 -6570 -6571 -6572 -6573 -6574 -6575 -6576 -6577 -6578 -6579 -6580 -6581 -6582 -6583 0
17 -10 -6561 -6562 -6563 -6564 -6565 -6566 -6567 -6568 -6569 -6570 -6571 -6572 -6573 -6574 -6575 -6576 -6577 -6578 -6579 -6580 -6581 -6582 -6583 0
9 17 -6561 -6562 -6563 -6564 -6565 -6566 -6567 -6568 -6569 -6570 -6571 -6572 -6573 -6574 -6575 -6576 -6577 -6578 -6579 -6580 -6581 -6582 -6583 0
8 17 -6561 -6562 -6563 -6564 -6565 -6566 -6567 -6568 -6569 -6570 -6571 -6572 -6573 -6574 -6575 -6576 -6577 -6578 -6579 -6580 -6581 -6582 -6583 0
7 17 -6561 -6562 -6563 -6564 -6565 -6566 -6567 -6568 -6569 -6570 -6571 -6572 -6573 -6574 -6575 -6576 -6577 -6578 -6579 -6580 -6581 -6582 -6583 0
-241 6584 0
-249 6584 0
250 6584 0
248 6584 0
247 6584 0
241 249 -250 -248 -247 -6584 0
-231 6585 0
-239 6585 0
240 6585 0
238 6585 0
237 6585 0
231 239 -240 -238 -237 -6585 0
-221 6586 0
-229 6586 0
230 6586 0
228 6586 0
227 6586 0
221 229 -230 -228 -227 -6586 0
-211 6587 0
-219 6587 0
220 6587 0
218 6587 0
217 6587 0
211 219 -220 -218 -217 -6587 0
-201 6588 0
-209 6588 0
210 6588 0
208 6588 0
207 6588 0
201 209 -210 -208 -207 -6588 0
-191 6589 0
-199 6589 0
200 6589 0
198 6589 0
197 6589 0
191 199 -200 -198 -197 -6589 0
-181 6590 0
-189 6590 0
190 6590 0
188 6590 0
187 6590 0
181 189 -190 -188 -187 -6590 0
-171 6591 0
-179 6591 0
180 6591 0
178 6591 0
177 6591 0
171 179 -180 -178 -177 -6591 0
-161 6592 0
-169 6592 0
170 6592 0
168 6592 0
167 6592 0
161 169 -170 -168 -167 -6592 0
-151 6593 0
-159 6593 0
160 6593 0
158 6593 0
157 6593 0
151 159 -160 -158 -157 -6593 0
-141 6594 0
-149 6594 0
150 6594 0
148 6594 0
147 6594 0
141 149 -150 -148 -147 -6594 0
-131 6595 0
-139 6595 0
140 6595 0
138 6595 0
137 6595 0
131 139 -140 -138 -137 -6595 0
-121 6596 0
-129 6596 0
130 6596 0
128 6596 0
127 6596 0
121 129 -130 -128 -127 -6596 0
-111 6597 0
-119 6597 0
120 6597 0
118 6597 0
117 6597 0
111 119 -120 -118 -117 -6597 0
-101 6598 0
-109 6598 0
110 6598 0
108 6598 0
107 6598 0
101 109 -110 -108 -107 -6598 0
-91 6599 0
-99 6599 0
100 6599 0
98 6599 0
97 6599 0
91 99 -100 -98 -97 -6599 0
-81 6600 0
-89 6600 0
90 6600 0
88 6600 0
87 6600 0
81 89 -90 -88 -87 -6600 0
-71 6601 0
-79 6601 0
80 6601 0
78 6601 0
77 6601 0
71 79 -80 -78 -77 -6601 0
-61 6602 0
-69 6602 0
70 6602 0
68 6602 0
67 6602 0
61 69 -70 -68 -67 -6602 0
-51 6603 0
-59 6603 0
60 6603 0
58 6603 0
57 6603 0
51 59 -60 -58 -57 -6603 0
-41 6604 0
-49 6604 0
50 6604 0
48 6604 0
47 6604 0
41 49 -50 -48 -47 -6604 0
-31 6605 0
-39 6605 0
40 6605 0
38 6605 0
37 6605 0
31 39 -40 -38 -37 -6605 0
-21 6606 0
-29 6606 0
30 6606 0
28 6606 0
27 6606 0
21 29 -30 -28 -27 -6606 0
-1 -11 -6584 -6585 -6586 -6587 -6588 -6589 -6590 -6591 -6592 -6593 -6594 -6595 -6596 -6597 -6598 -6599 -6600 -6601 -6602 -6603 -6604 -6605 -6606 0
-9 -11 -6584 -6585 -6586 -6587 -6588 -6589 -6590 -6591 -6592 -6593 -6594 -6595 -6596 -6597 -6598 -6599 -6600 -6601 -6602 -6603 -6604 -6605 -6606 0
10 -11 -6584 -6585 -6586 -6587 -6588 -6589 -6590 -6591 -6592 -6593 -6594 -6595 -6596 -6597 -6598 -6599 -6600 -6601 -6602 -6603 -6604 -6605 -6606 0
8 -11 -6584 -6585 -6586 -6587 -6588 -6589 -6590 -6591 -6592 -6593 -6594 -6595 -6596 -6597 -6598 -6599 -6600 -6601 -6602 -6603 -6604 -6605 -6606 0
7 -11 -6584 -6585 -6586 -6587 -6588 -6589 -6590 -6591 -6592 -6593 -6594 -6595 -6596 -6597 -6598 -6599 -6600 -6601 -6602 -6603 -6604 -6605 -6606 0
-19 -1 -6584 -6585 -6586 -6587 -6588 -6589 -6590 -6591 -6592 -6593 -6594 -6595 -6596 -6597 -6598 -6599 -6600 -6601 -6602 -6603 -6604 -6605 -6606 0
-9 -19 -6584 -6585 -6586 -6587 -6588 -6589 -6590 -6591 -6592 -6593 -6594 -6595 -6596 -6597 -6598 -6599 -6600 -6601 -6602 -6603 -6604 -6605 -6606 0
10 -19 -6584 -6585 -6586 -6587 -6588 -6589 -6590 -6591 -6592 -6593 -6594 -6595 -6596 -6597 -6598 -6599 -6600 -6601 -6602 -6603 -6604 -6605 -6606 0
8 -19 -6584 -6585 -6586 -6587 -6588 -6589 -6590 -6591 -6592 -6593 -6594 -6595 -6596 -6597 -6598 -6599 -6600 -6601 -6602 -6603 -6604 -6605 -6606 0
7 -19 -6584 -6585 -6586 -6587 -6588 -6589 -6590 -6591 -6592 -6593 -6594 -6595 -6596 -6597 -6598 -6599 -6600 -6601 -6602 -6603 -6604 -6605 -6606 0
20 -1 -6584 -6585 -6586 -6587 -6588 -6589 -6590 -6591 -6592 -6593 -6594 -6595 -6596 -6597 -6598 -6599 -6600 -6601 -6602 -6603 -6604 -6605 -6606 0
20 -9 -6584 -6585 -6586 -6587 -6588 -6589 -6590 -6591 -6592 -6593 -6594 -6595 -6596 -6597 -6598 -6599 -6600 -6601 -6602 -6603 -6604 -6605 -6606 0
10 20 -6584 -6585 -6586 -6587 -6588 -6589 -6590 -6591 -6592 -6593 -6594 -6595 -6596 -6597 -6598 -6599 -6600 -6601 -6602 -6603 -6604 -6605 -6606 0
8 20 -6584 -6585 -6586 -6587 -6588 -6589 -6590 -6591 -6592 -6593 -6594 -6595 -6596 -6597 -6598 -6599 -6600 -6601 -6602 -6603 -6604 -6605 -6606 0
7 20 -6584 -6585 -6586 -6587 -6588 -6589 -6590 -6591 -6592 -6593 -6594 -6595 -6596 -6597 -6598 -6599 -6600 -6601 -6602 -6603 -6604 -6605 -6606 0
18 -1 -6584 -6585 -6586 -6587 -6588 -6589 -6590 -6591 -6592 -6593 -6594 -6595 -6596 -6597 -6598 -6599 -6600 -6601 -6602 -6603 -6604 -6605 -6606 0
18 -9 -6584 -6585 -6586 -6587 -6588 -6589 -6590 -6591 -6592 -6593 -6594 -6595 -6596 -6597 -6598 -6599 -6600 -6601 -6602 -6603 -6604 -6605 -6606 0
10 18 -6584 -6585 -6586 -6587 -6588 -6589 -6590 -6591 -6592 -6593 -6594 -6595 -6596 -6597 -6598 -6599 -6600 -6601 -6602 -6603 -6604 -6605 -6606 0
8 18 -6584 -6585 -6586 -6587 -6588 -6589 -6590 -6591 -6592 -6593 -6594 -6595 -6596 -6597 -6598 -6599 -6600 -6601 -6602 -6603 -6604 -6605 -6606 0
7 18 -6584 -6585 -6586 -6587 -6588 -6589 -6590 -6591 -6592 -6593 -6594 -6595 -6596 -6597 -6598 -6599 -6600 -6601 -6602 -6603 -6604 -6605 -6606 0
17 -1 -6584 -6585 -6586 -6587 -6588 -6589 -6590 -6591 -6592 -6593 -6594 -6595 -6596 -6597 -6598 -6599 -6600 -6601 -6602 -6603 -6604 -6605 -6606 0
17 -9 -6584 -6585 -6586 -6587 -6588 -6589 -6590 -6591 -6592 -6593 -6594 -6595 -6596 -6597 -6598 -6599 -6600 -6601 -6602 -6603 -6604 -6605 -6606 0
10 17 -6584 -6585 -6586 -6587 -6588 -6589 -6590 -6591 -6592 -6593 -6594 -6595 -6596 -6597 -6598 -6599 -6600 -6601 -6602 -6603 -6604 -6605 -6606 0
8 17 -6584 -6585 -6586 -6587 -6588 -6589 -6590 -6591 -6592 -6593 -6594 -6595 -6596 -6597 -6598 -6599 -6600 -6601 -6602 -6603 -6604 -6605 -6606 0
7 17 -6584 -6585 -6586 -6587 -6588 -6589 -6590 -6591 -6592 -6593 -6594 -6595 -6596 -6597 -6598 -6599 -6600 -6601 -6602 -6603 -6604 -6605 -6606 0
-241 6607 0
-248 6607 0
249 6607 0
250 6607 0
247 6607 0
241 248 -249 -250 -247 -6607 0
-231 6608 0
-238 6608 0
239 6608 0
240 6608 0
237 6608 0
231 238 -239 -240 -237 -6608 0
-221 6609 0
-228 6609 0
229 6609 0
230 6609 0
227 6609 0
221 228 -229 -230 -227 -6609 0
-211 6610 0
-218 6610 0
219 6610 0
220 6610 0
217 6610 0
211 218 -219 -220 -217 -6610 0
-201 6611 0
-208 6611 0
209 6611 0
210 6611 0
207 6611 0
201 208 -209 -210 -207 -6611 0
-191 6612 0
-198 6612 0
199 6612 0
200 6612 0
197 6612 0
191 198 -199 -200 -197 -6612 0
-181 6613 0
-188 6613 0
189 6613 0
190 6613 0
187 6613 0
181 188 -189 -190 -187 -6613 0
-171 6614 0
-178 6614 0
179 6614 0
180 6614 0
177 6614 0
171 178 -179 -180 -177 -6614 0
-161 6615 0
-168 6615 0
169 6615 0
170 6615 0
167 6615 0
161 168 -169 -170 -167 -6615 0
-151 6616 0
-158 6616 0
159 6616 0
160 6616 0
157 6616 0
151 158 -159 -160 -157 -6616 0
-141 6617 0
-148 6617 0
149 6617 0
150 6617 0
147 6617 0
141 148 -149 -150 -147 -6617 0
-131 6618 0
-138 6618 0
139 6618 0
140 6618 0
137 6618 0
131 138 -139 -140 -137 -6618 0
-121 6619 0
-128 6619 0
129 6619 0
130 6619 0
127 6619 0
121 128 -129 -130 -127 -6619 0
-111 6620 0
-118 6620 0
119 6620 0
120 6620 0
117 6620 0
111 118 -119 -120 -117 -6620 0
-101 6621 0
-108 6621 0
109 6621 0
110 6621 0
107 6621 0
101 108 -109 -110 -107 -6621 0
-91 6622 0
-98 6622 0
99 6622 0
100 6622 0
97 6622 0
91 98 -99 -100 -97 -6622 0
-81 6623 0
-88 6623 0
89 6623 0
90 6623 0
87 6623 0
81 88 -89 -90 -87 -6623 0
-71 6624 0
-78 6624 0
79 6624 0
80 6624 0
77 6624 0
71 78 -79 -80 -77 -6624 0
-61 6625 0
-68 6625 0
69 6625 0
70 6625 0
67 6625 0
61 68 -69 -70 -67 -6625 0
-51 6626 0
-58 6626 0
59 6626 0
60 6626 0
57 6626 0
51 58 -59 -60 -57 -6626 0
-41 6627 0
-48 6627 0
49 6627 0
50 6627 0
47 6627 0
41 48 -49 -50 -47 -6627 0
-31 6628 0
-38 6628 0
39 6628 0
40 6628 0
37 6628 0
31 38 -39 -40 -37 -6628 0
-21 6629 0
-28 6629 0
29 6629 0
30 6629 0
27 6629 0
21 28 -29 -30 -27 -6629 0
-1 -11 -6607 -6608 -6609 -6610 -6611 -6612 -6613 -6614 -6615 -6616 -6617 -6618 -6619 -6620 -6621 -6622 -6623 -6624 -6625 -6626 -6627 -6628 -6629 0
-8 -11 -6607 -6608 -6609 -6610 -6611 -6612 -6613 -6614 -6615 -6616 -6617 -6618 -6619 -6620 -6621 -6622 -6623 -6624 -6625 -6626 -6627 -6628 -6629 0
9 -11 -6607 -6608 -6609 -6610 -6611 -6612 -6613 -6614 -6615 -6616 -6617 -6618 -6619 -6620 -6621 -6622 -6623 -6624 -6625 -6626 -6627 -6628 -6629 0
10 -11 -6607 -6608 -6609 -6610 -6611 -6612 -6613 -6614 -6615 -6616 -6617 -6618 -6619 -6620 -6621 -6622 -6623 -6624 -6625 -6626 -6627 -6628 -6629 0
7 -11 -6607 -6608 -6609 -6610 -6611 -6612 -6613 -6614 -6615 -6616 -6617 -6618 -6619 -6620 -6621 -6622 -6623 -6624 -6625 -6626 -6627 -6628 -6629 0
-18 -1 -6607 -6608 -6609 -6610 -6611 -6612 -6613 -6614 -6615 -6616 -6617 -6618 -6619 -6620 -6621 -6622 -6623 -6624 -6625 -6626 -6627 -6628 -6629 0
-8 -18 -6607 -6608 -6609 -6610 -6611 -6612 -6613 -6614 -6615 -6616 -6617 -6618 -6619 -6620 -6621 -6622 -6623 -6624 -6625 -6626 -6627 -6628 -6629 0
9 -18 -6607 -6608 -6609 -6610 -6611 -6612 -6613 -6614 -6615 -6616 -6617 -6618 -6619 -6620 -6621 -6622 -6623 -6624 -6625 -6626 -6627 -6628 -6629 0
10 -18 -6607 -6608 -6609 -6610 -6611 -6612 -6613 -6614 -6615 -6616 -6617 -6618 -6619 -6620 -6621 -6622 -6623 -6624 -6625 -6626 -6627 -6628 -6629 0
7 -18 -6607 -6608 -6609 -6610 -6611 -6612 -6613 -6614 -6615 -6616 -6617 -6618 -6619 -6620 -6621 -6622 -6623 -6624 -6625 -6626 -6627 -6628 -6629 0
19 -1 -6607 -6608 -6609 -6610 -6611 -6612 -6613 -6614 -6615 -6616 -6617 -6618 -6619 -6620 -6621 -6622 -6623 -6624 -6625 -6626 -6627 -6628 -6629 0
19 -8 -6607 -6608 -6609 -6610 -6611 -6612 -6613 -6614 -6615 -6616 -6617 -6618 -6619 -6620 -6621 -6622 -6623 -6624 -6625 -6626 -6627 -6628 -6629 0
9 19 -6607 -6608 -6609 -6610 -6611 -6612 -6613 -6614 -6615 -6616 -6617 -6618 -6619 -6620 -6621 -6622 -6623 -6624 -6625 -6626 -6627 -6628 -6629 0
10 19 -6607 -6608 -6609 -6610 -6611 -6612 -6613 -6614 -6615 -6616 -6617 -6618 -6619 -6620 -6621 -6622 -6623 -6624 -6625 -6626 -6627 -6628 -6629 0
7 19 -6607 -6608 -6609 -6610 -6611 -6612 -6613 -6614 -6615 -6616 -6617 -6618 -6619 -6620 -6621 -6622 -6623 -6624 -6625 -6626 -6627 -6628 -6629 0
20 -1 -6607 -6608 -6609 -6610 -6611 -6612 -6613 -6614 -6615 -6616 -6617 -6618 -6619 -6620 -6621 -6622 -6623 -6624 -6625 -6626 -6627 -6628 -6629 0
20 -8 -6607 -6608 -6609 -6610 -6611 -6612 -6613 -6614 -6615 -6616 -6617 -6618 -6619 -6620 -6621 -6622 -6623 -6624 -6625 -6626 -6627 -6628 -6629 0
9 20 -6607 -6608 -6609 -6610 -6611 -6612 -6613 -6614 -6615 -6616 -6617 -6618 -6619 -6620 -6621 -6622 -6623 -6624 -6625 -6626 -6627 -6628 -6629 0
10 20 -6607 -6608 -6609 -6610 -6611 -6612 -6613 -6614 -6615 -6616 -6617 -6618 -6619 -6620 -6621 -6622 -6623 -6624 -6625 -6626 -6627 -6628 -6629 0
7 20 -6607 -6608 -6609 -6610 -6611 -6612 -6613 -6614 -6615 -6616 -6617 -6618 -6619 -6620 -6621 -6622 -6623 -6624 -6625 -6626 -6627 -6628 -6629 0
17 -1 -6607 -6608 -6609 -6610 -6611 -6612 -6613 -6614 -6615 -6616 -6617 -6618 -6619 -6620 -6621 -6622 -6623 -6624 -6625 -6626 -6627 -6628 -6629 0
17 -8 -6607 -6608 -6609 -6610 -6611 -6612 -6613 -6614 -6615 -6616 -6617 -6618 -6619 -6620 -6621 -6622 -6623 -6624 -6625 -6626 -6627 -6628 -6629 0
9 17 -6607 -6608 -6609 -6610 -6611 -6612 -6613 -6614 -6615 -6616 -6617 -6618 -6619 -6620 -6621 -6622 -6623 -6624 -6625 -6626 -6627 -6628 -6629 0
10 17 -6607 -6608 -6609 -6610 -6611 -6612 -6613 -6614 -6615 -6616 -6617 -6618 -6619 -6620 -6621 -6622 -6623 -6624 -6625 -6626 -6627 -6628 -6629 0
7 17 -6607 -6608 -6609 -6610 -6611 -6612 -6613 -6614 -6615 -6616 -6617 -6618 -6619 -6620 -6621 -6622 -6623 -6624 -6625 -6626 -6627 -6628 -6629 0
-241 6630 0
-247 6630 0
248 6630 0
249 6630 0
250 6630 0
241 247 -249 -250 -248 -6630 0
-231 6631 0
-237 6631 0
238 6631 0
239 6631 0
240 6631 0
231 237 -239 -240 -238 -6631 0
-221 6632 0
-227 6632 0
228 6632 0
229 6632 0
230 6632 0
221 227 -229 -230 -228 -6632 0
-211 6633 0
-217 6633 0
218 6633 0
219 6633 0
220 6633 0
211 217 -219 -220 -218 -6633 0
-201 6634 0
-207 6634 0
208 6634 0
209 6634 0
210 6634 0
201 207 -209 -210 -208 -6634 0
-191 6635 0
-197 6635 0
198 6635 0
199 6635 0
200 6635 0
191 197 -199 -200 -198 -6635 0
-181 6636 0
-187 6636 0
188 6636 0
189 6636 0
190 6636 0
181 187 -189 -190 -188 -6636 0
-171 6637 0
-177 6637 0
178 6637 0
179 6637 0
180 6637 0
171 177 -179 -180 -178 -6637 0
-161 6638 0
-167 6638 0
168 6638 0
169 6638 0
170 6638 0
161 167 -169 -170 -168 -6638 0
-151 6639 0
-157 6639 0
158 6639 0
159 6639 0
160 6639 0
151 157 -159 -160 -158 -6639 0
-141 6640 0
-147 6640 0
148 6640 0
149 6640 0
150 6640 0
141 147 -149 -150 -148 -6640 0
-131 6641 0
-137 6641 0
138 6641 0
139 6641 0
140 6641 0
131 137 -139 -140 -138 -6641 0
-121 6642 0
-127 6642 0
128 6642 0
129 6642 0
130 6642 0
121 127 -129 -130 -128 -6642 0
-111 6643 0
-117 6643 0
118 6643 0
119 6643 0
120 6643 0
111 117 -119 -120 -118 -6643 0
-101 6644 0
-107 6644 0
108 6644 0
109 6644 0
110 6644 0
101 107 -109 -110 -108 -6644 0
-91 6645 0
-97 6645 0
98 6645 0
99 6645 0
100 6645 0
91 97 -99 -100 -98 -6645 0
-81 6646 0
-87 6646 0
88 6646 0
89 6646 0
90 6646 0
81 87 -89 -90 -88 -6646 0
-71 6647 0
-77 6647 0
78 6647 0
79 6647 0
80 6647 0
71 77 -79 -80 -78 -6647 0
-61 6648 0
-67 6648 0
68 6648 0
69 6648 0
70 6648 0
61 67 -69 -70 -68 -6648 0
-51 6649 0
-57 6649 0
58 6649 0
59 6649 0
60 6649 0
51 57 -59 -60 -58 -6649 0
-41 6650 0
-47 6650 0
48 6650 0
49 6650 0
50 6650 0
41 47 -49 -50 -48 -6650 0
-31 6651 0
-37 6651 0
38 6651 0
39 6651 0
40 6651 0
31 37 -39 -40 -38 -6651 0
-21 6652 0
-27 6652 0
28 6652 0
29 6652 0
30 6652 0
21 27 -29 -30 -28 -6652 0
-1 -11 -6630 -6631 -6632 -6633 -6634 -6635 -6636 -6637 -6638 -6639 -6640 -6641 -6642 -6643 -6644 -6645 -6646 -6647 -6648 -6649 -6650 -6651 -6652 0
-7 -11 -6630 -6631 -6632 -6633 -6634 -6635 -6636 -6637 -6638 -6639 -6640 -6641 -6642 -6643 -6644 -6645 -6646 -6647 -6648 -6649 -6650 -6651 -6652 0
8 -11 -6630 -6631 -6632 -6633 -6634 -6635 -6636 -6637 -6638 -6639 -6640 -6641 -6642 -6643 -6644 -6645 -6646 -6647 -6648 -6649 -6650 -6651 -6652 0
9 -11 -6630 -6631 -6632 -6633 -6634 -6635 -6636 -6637 -6638 -6639 -6640 -6641 -6642 -6643 -6644 -6645 -6646 -6647 -6648 -6649 -6650 -6651 -6652 0
10 -11 -6630 -6631 -6632 -6633 -6634 -6635 -6636 -6637 -6638 -6639 -6640 -6641 -6642 -6643 -6644 -6645 -6646 -6647 -6648 -6649 -6650 -6651 -6652 0
-17 -1 -6630 -6631 -6632 -6633 -6634 -6635 -6636 -6637 -6638 -6639 -6640 -6641 -6642 -6643 -6644 -6645 -6646 -6647 -6648 -6649 -6650 -6651 -6652 0
-7 -17 -6630 -6631 -6632 -6633 -6634 -6635 -6636 -6637 -6638 -6639 -6640 -6641 -6642 -6643 -6644 -6645 -6646 -6647 -6648 -6649 -6650 -6651 -6652 0
8 -17 -6630 -6631 -6632 -6633 -6634 -6635 -6636 -6637 -6638 -6639 -6640 -6641 -6642 -6643 -6644 -6645 -6646 -6647 -6648 -6649 -6650 -6651 -6652 0
9 -17 -6630 -6631 -6632 -6633 -6634 -6635 -6636 -6637 -6638 -6639 -6640 -6641 -6642 -6643 -6644 -6645 -6646 -6647 -6648 -6649 -6650 -6651 -6652 0
10 -17 -6630 -6631 -6632 -6633 -6634 -6635 -6636 -6637 -6638 -6639 -6640 -6641 -6642 -6643 -6644 -6645 -6646 -6647 -6648 -6649 -6650 -6651 -6652 0
18 -1 -6630 -6631 -6632 -6633 -6634 -6635 -6636 -6637 -6638 -6639 -6640 -6641 -6642 -6643 -6644 -6645 -6646 -6647 -6648 -6649 -6650 -6651 -6652 0
18 -7 -6630 -6631 -6632 -6633 -6634 -6635 -6636 -6637 -6638 -6639 -6640 -6641 -6642 -6643 -6644 -6645 -6646 -6647 -6648 -6649 -6650 -6651 -6652 0
8 18 -6630 -6631 -6632 -6633 -6634 -6635 -6636 -6637 -6638 -6639 -6640 -6641 -6642 -6643 -6644 -6645 -6646 -6647 -6648 -6649 -6650 -6651 -6652 0
9 18 -6630 -6631 -6632 -6633 -6634 -6635 -6636 -6637 -6638 -6639 -6640 -6641 -6642 -6643 -6644 -6645 -6646 -6647 -6648 -6649 -6650 -6651 -6652 0
10 18 -6630 -6631 -6632 -6633 -6634 -6635 -6636 -6637 -6638 -6639 -6640 -6641 -6642 -6643 -6644 -6645 -6646 -6647 -6648 -6649 -6650 -6651 -6652 0
19 -1 -6630 -6631 -6632 -6633 -6634 -6635 -6636 -6637 -6638 -6639 -6640 -6641 -6642 -6643 -6644 -6645 -6646 -6647 -6648 -6649 -6650 -6651 -6652 0
19 -7 -6630 -6631 -6632 -6633 -6634 -6635 -6636 -6637 -6638 -6639 -6640 -6641 -6642 -6643 -6644 -6645 -6646 -6647 -6648 -6649 -6650 -6651 -6652 0
8 19 -6630 -6631 -6632 -6633 -6634 -6635 -6636 -6637 -6638 -6639 -6640 -6641 -6642 -6643 -6644 -6645 -6646 -6647 -6648 -6649 -6650 -6651 -6652 0
9 19 -6630 -6631 -6632 -6633 -6634 -6635 -6636 -6637 -6638 -6639 -6640 -6641 -6642 -6643 -6644 -6645 -6646 -6647 -6648 -6649 -6650 -6651 -6652 0
10 19 -6630 -6631 -6632 -6633 -6634 -6635 -6636 -6637 -6638 -6639 -6640 -6641 -6642 -6643 -6644 -6645 -6646 -6647 -6648 -6649 -6650 -6651 -6652 0
20 -1 -6630 -6631 -6632 -6633 -6634 -6635 -6636 -6637 -6638 -6639 -6640 -6641 -6642 -6643 -6644 -6645 -6646 -6647 -6648 -6649 -6650 -6651 -6652 0
20 -7 -6630 -6631 -6632 -6633 -6634 -6635 -6636 -6637 -6638 -6639 -6640 -6641 -6642 -6643 -6644 -6645 -6646 -6647 -6648 -6649 -6650 -6651 -6652 0
8 20 -6630 -6631 -6632 -6633 -6634 -6635 -6636 -6637 -6638 -6639 -6640 -6641 -6642 -6643 -6644 -6645 -6646 -6647 -6648 -6649 -6650 -6651 -6652 0
9 20 -6630 -6631 -6632 -6633 -6634 -6635 -6636 -6637 -6638 -6639 -6640 -6641 -6642 -6643 -6644 -6645 -6646 -6647 -6648 -6649 -6650 -6651 -6652 0
10 20 -6630 -6631 -6632 -6633 -6634 -6635 -6636 -6637 -6638 -6639 -6640 -6641 -6642 -6643 -6644 -6645 -6646 -6647 -6648 -6649 -6650 -6651 -6652 0
6653 0
8 9 10 -7 -1 0
18 19 20 -17 -11 0
28 29 30 -27 -21 0
38 39 40 -37 -31 0
48 49 50 -47 -41 0
58 59 60 -57 -51 0
68 69 70 -67 -61 0
78 79 80 -77 -71 0
88 89 90 -87 -81 0
98 99 100 -97 -91 0
108 109 110 -107 -101 0
118 119 120 -117 -111 0
128 129 130 -127 -121 0
138 139 140 -137 -131 0
148 149 150 -147 -141 0
158 159 160 -157 -151 0
168 169 170 -167 -161 0
178 179 180 -177 -171 0
188 189 190 -187 -181 0
198 199 200 -197 -191 0
208 209 210 -207 -201 0
218 219 220 -217 -211 0
228 229 230 -227 -221 0
238 239 240 -237 -231 0
248 249 250 -247 -241 0
7 9 10 -8 -1 0
17 19 20 -18 -11 0
27 29 30 -28 -21 0
37 39 40 -38 -31 0
47 49 50 -48 -41 0
57 59 60 -58 -51 0
67 69 70 -68 -61 0
77 79 80 -78 -71 0
87 89 90 -88 -81 0
97 99 100 -98 -91 0
107 109 110 -108 -101 0
117 119 120 -118 -111 0
127 129 130 -128 -121 0
137 139 140 -138 -131 0
147 149 150 -148 -141 0
157 159 160 -158 -151 0
167 169 170 -168 -161 0
177 179 180 -178 -171 0
187 189 190 -188 -181 0
197 199 200 -198 -191 0
207 209 210 -208 -201 0
217 219 220 -218 -211 0
227 229 230 -228 -221 0
237 239 240 -238 -231 0
247 249 250 -248 -241 0
7 8 10 -9 -1 0
17 18 20 -19 -11 0
27 28 30 -29 -21 0
37 38 40 -39 -31 0
47 48 50 -49 -41 0
57 58 60 -59 -51 0
67 68 70 -69 -61 0
77 78 80 -79 -71 0
87 88 90 -89 -81 0
97 98 100 -99 -91 0
107 108 110 -109 -101 0
117 118 120 -119 -111 0
127 128 130 -129 -121 0
137 138 140 -139 -131 0
147 148 150 -149 -141 0
157 158 160 -159 -151 0
167 168 170 -169 -161 0
177 178 180 -179 -171 0
187 188 190 -189 -181 0
197 198 200 -199 -191 0
207 208 210 -209 -201 0
217 218 220 -219 -211 0
227 228 230 -229 -221 0
237 238 240 -239 -231 0
247 248 250 -249 -241 0
7 8 9 -10 -1 0
17 18 19 -20 -11 0
27 28 29 -30 -21 0
37 38 39 -40 -31 0
47 48 49 -50 -41 0
57 58 59 -60 -51 0
67 68 69 -70 -61 0
77 78 79 -80 -71 0
87 88 89 -90 -81 0
97 98 99 -100 -91 0
107 108 109 -110 -101 0
117 118 119 -120 -111 0
127 128 129 -130 -121 0
137 138 139 -140 -131 0
147 148 149 -150 -141 0
157 158 159 -160 -151 0
167 168 169 -170 -161 0
177 178 179 -180 -171 0
187 188 189 -190 -181 0
197 198 199 -200 -191 0
207 208 209 -210 -201 0
217 218 219 -220 -211 0
227 228 229 -230 -221 0
237 238 239 -240 -231 0
247 248 249 -250 -241 0
1 9 10 -8 -7 0
11 19 20 -18 -17 0
21 29 30 -28 -27 0
31 39 40 -38 -37 0
41 49 50 -48 -47 0
51 59 60 -58 -57 0
61 69 70 -68 -67 0
71 79 80 -78 -77 0
81 89 90 -88 -87 0
91 99 100 -98 -97 0
101 109 110 -108 -107 0
111 119 120 -118 -117 0
121 129 130 -128 -127 0
131 139 140 -138 -137 0
141 149 150 -148 -147 0
151 159 160 -158 -157 0
161 169 170 -168 -167 0
171 179 180 -178 -177 0
181 189 190 -188 -187 0
191 199 200 -198 -197 0
201 209 210 -208 -207 0
211 219 220 -218 -217 0
221 229 230 -228 -227 0
231 239 240 -238 -237 0
241 249 250 -248 -247 0
1 8 10 -9 -7 0
11 18 20 -19 -17 0
21 28 30 -29 -27 0
31 38 40 -39 -37 0
41 48 50 -49 -47 0
51 58 60 -59 -57 0
61 68 70 -69 -67 0
71 78 80 -79 -77 0
81 88 90 -89 -87 0
91 98 100 -99 -97 0
101 108 110 -109 -107 0
111 118 120 -119 -117 0
121 128 130 -129 -127 0
131 138 140 -139 -137 0
141 148 150 -149 -147 0
151 158 160 -159 -157 0
161 168 170 -169 -167 0
171 178 180 -179 -177 0
181 188 190 -189 -187 0
191 198 200 -199 -197 0
201 208 210 -209 -207 0
211 218 220 -219 -217 0
221 228 230 -229 -227 0
231 238 240 -239 -237 0
241 248 250 -249 -247 0
1 8 9 -10 -7 0
11 18 19 -20 -17 0
21 28 29 -30 -27 0
31 38 39 -40 -37 0
41 48 49 -50 -47 0
51 58 59 -60 -57 0
61 68 69 -70 -67 0
71 78 79 -80 -77 0
81 88 89 -90 -87 0
91 98 99 -100 -97 0
101 108 109 -110 -107 0
111 118 119 -120 -117 0
121 128 129 -130 -127 0
131 138 139 -140 -137 0
141 148 149 -150 -147 0
151 158 159 -160 -157 0
161 168 169 -170 -167 0
171 178 179 -180 -177 0
181 188 189 -190 -187 0
191 198 199 -200 -197 0
201 208 209 -210 -207 0
211 218 219 -220 -217 0
221 228 229 -230 -227 0
231 238 239 -240 -237 0
241 248 249 -250 -247 0
1 7 10 -9 -8 0
11 17 20 -19 -18 0
21 27 30 -29 -28 0
31 37 40 -39 -38 0
41 47 50 -49 -48 0
51 57 60 -59 -58 0
61 67 70 -69 -68 0
71 77 80 -79 -78 0
81 87 90 -89 -88 0
91 97 100 -99 -98 0
101 107 110 -109 -108 0
111 117 120 -119 -118 0
121 127 130 -129 -128 0
131 137 140 -139 -138 0
141 147 150 -149 -148 0
151 157 160 -159 -158 0
161 167 170 -169 -168 0
171 177 180 -179 -178 0
181 187 190 -189 -188 0
191 197 200 -199 -198 0
201 207 210 -209 -208 0
211 217 220 -219 -218 0
221 227 230 -229 -228 0
231 237 240 -239 -238 0
241 247 250 -249 -248 0
1 7 9 -10 -8 0
11 17 19 -20 -18 0
21 27 29 -30 -28 0
31 37 39 -40 -38 0
41 47 49 -50 -48 0
51 57 59 -60 -58 0
61 67 69 -70 -68 0
71 77 79 -80 -78 0
81 87 89 -90 -88 0
91 97 99 -100 -98 0
101 107 109 -110 -108 0
111 117 119 -120 -118 0
121 127 129 -130 -128 0
131 137 139 -140 -138 0
141 147 149 -150 -148 0
151 157 159 -160 -158 0
161 167 169 -170 -168 0
171 177 179 -180 -178 0
181 187 189 -190 -188 0
191 197 199 -200 -198 0
201 207 209 -210 -208 0
211 217 219 -220 -218 0
221 227 229 -230 -228 0
231 237 239 -240 -238 0
241 247 249 -250 -248 0
1 7 8 -9 -10 0
11 17 18 -19 -20 0
21 27 28 -29 -30 0
31 37 38 -39 -40 0
41 47 48 -49 -50 0
51 57 58 -59 -60 0
61 67 68 -69 -70 0
71 77 78 -79 -80 0
81 87 88 -89 -90 0
91 97 98 -99 -100 0
101 107 108 -109 -110 0
111 117 118 -119 -120 0
121 127 128 -129 -130 0
131 137 138 -139 -140 0
141 147 148 -149 -150 0
151 157 158 -159 -160 0
161 167 168 -169 -170 0
171 177 178 -179 -180 0
181 187 188 -189 -190 0
191 197 198 -199 -200 0
201 207 208 -209 -210 0
211 217 218 -219 -220 0
221 227 228 -229 -230 0
231 237 238 -239 -240 0
241 247 248 -249 -250 0
10 -9 -8 -7 -1 0
20 -19 -18 -17 -11 0
30 -29 -28 -27 -21 0
40 -39 -38 -37 -31 0
50 -49 -48 -47 -41 0
60 -59 -58 -57 -51 0
70 -69 -68 -67 -61 0
80 -79 -78 -77 -71 0
90 -89 -88 -87 -81 0
100 -99 -98 -97 -91 0
110 -109 -108 -107 -101 0
120 -119 -118 -117 -111 0
130 -129 -128 -127 -121 0
140 -139 -138 -137 -131 0
150 -149 -148 -147 -141 0
160 -159 -158 -157 -151 0
170 -169 -168 -167 -161 0
180 -179 -178 -177 -171 0
190 -189 -188 -187 -181 0
200 -199 -198 -197 -191 0
210 -209 -208 -207 -201 0
220 -219 -218 -217 -211 0
230 -229 -228 -227 -221 0
240 -239 -238 -237 -231 0
250 -249 -248 -247 -241 0
9 -10 -8 -7 -1 0
19 -20 -18 -17 -11 0
29 -30 -28 -27 -21 0
39 -40 -38 -37 -31 0
49 -50 -48 -47 -41 0
59 -60 -58 -57 -51 0
69 -70 -68 -67 -61 0
79 -80 -78 -77 -71 0
89 -90 -88 -87 -81 0
99 -100 -98 -97 -91 0
109 -110 -108 -107 -101 0
119 -120 -118 -117 -111 0
129 -130 -128 -127 -121 0
139 -140 -138 -137 -131 0
149 -150 -148 -147 -141 0
159 -160 -158 -157 -151 0
169 -170 -168 -167 -161 0
179 -180 -178 -177 -171 0
189 -190 -188 -187 -181 0
199 -200 -198 -197 -191 0
209 -210 -208 -207 -201 0
219 -220 -218 -217 -211 0
229 -230 -228 -227 -221 0
239 -240 -238 -237 -231 0
249 -250 -248 -247 -241 0
8 -9 -10 -7 -1 0
18 -19 -20 -17 -11 0
28 -29 -30 -27 -21 0
38 -39 -40 -37 -31 0
48 -49 -50 -47 -41 0
58 -59 -60 -57 -51 0
68 -69 -70 -67 -61 0
78 -79 -80 -77 -71 0
88 -89 -90 -87 -81 0
98 -99 -100 -97 -91 0
108 -109 -110 -107 -101 0
118 -119 -120 -117 -111 0
128 -129 -130 -127 -121 0
138 -139 -140 -137 -131 0
148 -149 -150 -147 -141 0
158 -159 -160 -157 -151 0
168 -169 -170 -167 -161 0
178 -179 -180 -177 -171 0
188 -189 -190 -187 -181 0
198 -199 -200 -197 -191 0
208 -209 -210 -207 -201 0
218 -219 -220 -217 -211 0
228 -229 -230 -227 -221 0
238 -239 -240 -237 -231 0
248 -249 -250 -247 -241 0
7 -9 -10 -8 -1 0
17 -19 -20 -18 -11 0
27 -29 -30 -28 -21 0
37 -39 -40 -38 -31 0
47 -49 -50 -48 -41 0
57 -59 -60 -58 -51 0
67 -69 -70 -68 -61 0
77 -79 -80 -78 -71 0
87 -89 -90 -88 -81 0
97 -99 -100 -98 -91 0
107 -109 -110 -108 -101 0
117 -119 -120 -118 -111 0
127 -129 -130 -128 -121 0
137 -139 -140 -138 -131 0
147 -149 -150 -148 -141 0
157 -159 -160 -158 -151 0
167 -169 -170 -168 -161 0
177 -179 -180 -178 -171 0
187 -189 -190 -188 -181 0
197 -199 -200 -198 -191 0
207 -209 -210 -208 -201 0
217 -219 -220 -218 -211 0
227 -229 -230 -228 -221 0
237 -239 -240 -238 -231 0
247 -249 -250 -248 -241 0
1 -7 -8 -9 -10 0
11 -17 -18 -19 -20 0
21 -27 -28 -29 -30 0
31 -37 -38 -39 -40 0
41 -47 -48 -49 -50 0
51 -57 -58 -59 -60 0
61 -67 -68 -69 -70 0
71 -77 -78 -79 -80 0
81 -87 -88 -89 -90 0
91 -97 -98 -99 -100 0
101 -107 -108 -109 -110 0
111 -117 -118 -119 -120 0
121 -127 -128 -129 -130 0
131 -137 -138 -139 -140 0
141 -147 -148 -149 -150 0
151 -157 -158 -159 -160 0
161 -167 -168 -169 -170 0
171 -177 -178 -179 -180 0
181 -187 -188 -189 -190 0
191 -197 -198 -199 -200 0
201 -207 -208 -209 -210 0
211 -217 -218 -219 -220 0
221 -227 -228 -229 -230 0
231 -237 -238 -239 -240 0
241 -247 -248 -249 -250 0
3310 6654 0
3309 6654 0
3311 6654 0
3308 6654 0
3312 6654 0
3310 3309 3314 0
3310 3311 3314 0
3310 3308 3314 0
3310 3312 3314 0
3309 3311 3314 0
3309 3308 3314 0
3309 3312 3314 0
3311 3308 3314 0
3311 3312 3314 0
3308 3312 3314 0
-3308 -3309 -3310 -3311 -3312 -6654 0
-3308 -3309 -3310 -3311 -3314 0
-3309 -3310 -3311 -3312 -3314 0
-3308 -3309 -3310 -3312 -3314 0
-3308 -3310 -3311 -3312 -3314 0
-3308 -3309 -3311 -3312 -3314 0
3318 6655 0
3317 6655 0
3319 6655 0
3316 6655 0
3320 6655 0
3318 3317 3322 0
3318 3319 3322 0
3318 3316 3322 0
3318 3320 3322 0
3317 3319 3322 0
3317 3316 3322 0
3317 3320 3322 0
3319 3316 3322 0
3319 3320 3322 0
3316 3320 3322 0
-3316 -3317 -3318 -3319 -3320 -6655 0
-3316 -3317 -3318 -3319 -3322 0
-3317 -3318 -3319 -3320 -3322 0
-3316 -3317 -3318 -3320 -3322 0
-3316 -3318 -3319 -3320 -3322 0
-3316 -3317 -3319 -3320 -3322 0
3326 6656 0
3325 6656 0
3327 6656 0
3324 6656 0
3328 6656 0
3326 3325 3330 0
3326 3327 3330 0
3326 3324 3330 0
3326 3328 3330 0
3325 3327 3330 0
3325 3324 3330 0
3325 3328 3330 0
3327 3324 3330 0
3327 3328 3330 0
3324 3328 3330 0
-3324 -3325 -3326 -3327 -3328 -6656 0
-3324 -3325 -3326 -3327 -3330 0
-3325 -3326 -3327 -3328 -3330 0
-3324 -3325 -3326 -3328 -3330 0
-3324 -3326 -3327 -3328 -3330 0
-3324 -3325 -3327 -3328 -3330 0
3334 6657 0
3332 6657 0
3335 6657 0
3333 6657 0
3336 6657 0
3334 3332 3338 0
3334 3335 3338 0
3334 3333 3338 0
3334 3336 3338 0
3332 3335 3338 0
3332 3333 3338 0
3332 3336 3338 0
3335 3333 3338 0
3335 3336 3338 0
3333 3336 3338 0
-3332 -3333 -3334 -3335 -3336 -6657 0
-3332 -3333 -3334 -3335 -3338 0
-3332 -3334 -3335 -3336 -3338 0
-3332 -3333 -3334 -3336 -3338 0
-3333 -3334 -3335 -3336 -3338 0
-3332 -3333 -3335 -3336 -3338 0
3442 6658 0
3445 6658 0
3464 6658 0
3489 6658 0
3442 3445 6659 0
3442 3464 6659 0
3442 3489 6659 0
3445 3464 6659 0
3445 3489 6659 0
3464 3489 6659 0
3442 3445 3464 6660 0
3442 3445 3489 6660 0
3442 3464 3489 6660 0
3445 3464 3489 6660 0
3442 3445 3464 3489 6661 0
-3445 -3489 -3442 -3464 -6658 0
-3445 -3442 -3464 -6659 0
-3445 -3489 -3442 -6659 0
-3489 -3442 -3464 -6659 0
-3445 -3489 -3464 -6659 0
-3445 -3442 -6660 0
-3442 -3464 -6660 0
-3489 -3442 -6660 0
-3445 -3464 -6660 0
-3445 -3489 -6660 0
-3489 -3464 -6660 0
-3442 -6661 0
-3445 -6661 0
-3464 -6661 0
-3489 -6661 0
3483 6662 0
3479 6662 0
3456 6662 0
3440 6662 0
3483 3479 6663 0
3483 3456 6663 0
3483 3440 6663 0
3479 3456 6663 0
3479 3440 6663 0
3456 3440 6663 0
3483 3479 3456 6664 0
3483 3479 3440 6664 0
3483 3456 3440 6664 0
3479 3456 3440 6664 0
3483 3479 3456 3440 6665 0
-3440 -3479 -3483 -3456 -6662 0
-3479 -3483 -3456 -6663 0
-3440 -3479 -3483 -6663 0
-3440 -3483 -3456 -6663 0
-3440 -3479 -3456 -6663 0
-3479 -3483 -6664 0
-3483 -3456 -6664 0
-3440 -3483 -6664 0
-3479 -3456 -6664 0
-3440 -3479 -6664 0
-3440 -3456 -6664 0
-3483 -6665 0
-3479 -6665 0
-3456 -6665 0
-3440 -6665 0
6666 -6658 0
6667 -6659 0
6668 -6660 0
3340 -6661 0
-6662 6666 0
6667 -6663 0
-6664 6668 0
3340 -6665 0
6667 -6662 -6658 0
6668 -6663 -6658 0
-6664 3340 -6658 0
6668 -6662 -6659 0
3340 -6663 -6659 0
-6660 3340 -6662 0
-6666 6658 6662 0
6658 6663 -6667 0
6659 6662 -6667 0
-6668 6658 6664 0
-6668 6659 6663 0
-6668 6660 6662 0
6665 6658 -3340 0
6659 6664 -3340 0
6663 6660 -3340 0
6661 6662 -3340 0
6669 -3442 0
6669 -3445 0
6669 -3464 0
6669 -3489 0
6670 -3442 -3445 0
6670 -3442 -3464 0
6670 -3442 -3489 0
6670 -3445 -3464 0
6670 -3445 -3489 0
6670 -3464 -3489 0
6671 -3442 -3445 -3464 0
6671 -3442 -3445 -3489 0
6671 -3442 -3464 -3489 0
6671 -3445 -3464 -3489 0
6672 -3442 -3445 -3464 -3489 0
3442 3445 3464 3489 -6669 0
3442 3445 3464 -6670 0
3442 3445 3489 -6670 0
3442 3464 3489 -6670 0
3445 3464 3489 -6670 0
3442 3445 -6671 0
3442 3464 -6671 0
3442 3489 -6671 0
3445 3464 -6671 0
3445 3489 -6671 0
3464 3489 -6671 0
3442 -6672 0
3445 -6672 0
3464 -6672 0
3489 -6672 0
6673 -3483 0
6673 -3479 0
6673 -3456 0
6673 -3440 0
6674 -3483 -3479 0
6674 -3483 -3456 0
6674 -3483 -3440 0
6674 -3479 -3456 0
6674 -3479 -3440 0
6674 -3456 -3440 0
6675 -3483 -3479 -3456 0
6675 -3483 -3479 -3440 0
6675 -3483 -3456 -3440 0
6675 -3479 -3456 -3440 0
6676 -3483 -3479 -3456 -3440 0
3483 3479 3456 3440 -6673 0
3483 3479 3456 -6674 0
3483 3479 3440 -6674 0
3483 3456 3440 -6674 0
3479 3456 3440 -6674 0
3483 3479 -6675 0
3483 3456 -6675 0
3483 3440 -6675 0
3479 3456 -6675 0
3479 3440 -6675 0
3456 3440 -6675 0
3483 -6676 0
3479 -6676 0
3456 -6676 0
3440 -6676 0
-6669 6677 0
-6670 6678 0
-6671 6679 0
3342 -6672 0
6677 -6673 0
-6674 6678 0
-6675 6679 0
3342 -6676 0
-6669 6678 -6673 0
-6669 -6674 6679 0
-6669 3342 -6675 0
-6670 -6673 6679 0
-6670 -6674 3342 0
3342 -6671 -6673 0
6669 6673 -6677 0
6674 -6678 6669 0
-6678 6673 6670 0
6675 -6679 6669 0
6674 -6679 6670 0
-6679 6671 6673 0
-3342 6669 6676 0
6675 -3342 6670 0
6674 -3342 6671 0
-3342 6672 6673 0
3446 6680 0
3450 6680 0
3471 6680 0
3498 6680 0
3446 3450 6681 0
3446 3471 6681 0
3446 3498 6681 0
3450 3471 6681 0
3450 3498 6681 0
3471 3498 6681 0
3446 3450 3471 6682 0
3446 3450 3498 6682 0
3446 3471 3498 6682 0
3450 3471 3498 6682 0
3446 3450 3471 3498 6683 0
-3450 -3498 -3446 -3471 -6680 0
-3450 -3446 -3471 -6681 0
-3450 -3498 -3446 -6681 0
-3498 -3446 -3471 -6681 0
-3450 -3498 -3471 -6681 0
-3450 -3446 -6682 0
-3446 -3471 -6682 0
-3498 -3446 -6682 0
-3450 -3471 -6682 0
-3450 -3498 -6682 0
-3498 -3471 -6682 0
-3446 -6683 0
-3450 -6683 0
-3471 -6683 0
-3498 -6683 0
3490 6684 0
3484 6684 0
3460 6684 0
3443 6684 0
3490 3484 6685 0
3490 3460 6685 0
3490 3443 6685 0
3484 3460 6685 0
3484 3443 6685 0
3460 3443 6685 0
3490 3484 3460 6686 0
3490 3484 3443 6686 0
3490 3460 3443 6686 0
3484 3460 3443 6686 0
3490 3484 3460 3443 6687 0
-3443 -3484 -3490 -3460 -6684 0
-3484 -3490 -3460 -6685 0
-3443 -3484 -3490 -6685 0
-3443 -3490 -3460 -6685 0
-3443 -3484 -3460 -6685 0
-3484 -3490 -6686 0
-3490 -3460 -6686 0
-3443 -3490 -6686 0
-3484 -3460 -6686 0
-3443 -3484 -6686 0
-3443 -3460 -6686 0
-3490 -6687 0
-3484 -6687 0
-3460 -6687 0
-3443 -6687 0
-6680 6688 0
-6681 6689 0
-6682 6690 0
-6683 3344 0
-6684 6688 0
-6685 6689 0
-6686 6690 0
-6687 3344 0
-6680 -6684 6689 0
-6680 -6685 6690 0
-6680 -6686 3344 0
-6681 -6684 6690 0
-6681 -6685 3344 0
-6682 -6684 3344 0
6680 6684 -6688 0
6680 6685 -6689 0
6681 6684 -6689 0
6680 6686 -6690 0
6685 6681 -6690 0
6682 6684 -6690 0
6680 6687 -3344 0
6686 6681 -3344 0
6685 6682 -3344 0
6683 6684 -3344 0
6691 -3446 0
6691 -3450 0
6691 -3471 0
6691 -3498 0
6692 -3446 -3450 0
6692 -3446 -3471 0
6692 -3446 -3498 0
6692 -3450 -3471 0
6692 -3450 -3498 0
6692 -3471 -3498 0
6693 -3446 -3450 -3471 0
6693 -3446 -3450 -3498 0
6693 -3446 -3471 -3498 0
6693 -3450 -3471 -3498 0
6694 -3446 -3450 -3471 -3498 0
3446 3450 3471 3498 -6691 0
3446 3450 3471 -6692 0
3446 3450 3498 -6692 0
3446 3471 3498 -6692 0
3450 3471 3498 -6692 0
3446 3450 -6693 0
3446 3471 -6693 0
3446 3498 -6693 0
3450 3471 -6693 0
3450 3498 -6693 0
3471 3498 -6693 0
3446 -6694 0
3450 -6694 0
3471 -6694 0
3498 -6694 0
6695 -3490 0
6695 -3484 0
6695 -3460 0
6695 -3443 0
6696 -3490 -3484 0
6696 -3490 -3460 0
6696 -3490 -3443 0
6696 -3484 -3460 0
6696 -3484 -3443 0
6696 -3460 -3443 0
6697 -3490 -3484 -3460 0
6697 -3490 -3484 -3443 0
6697 -3490 -3460 -3443 0
6697 -3484 -3460 -3443 0
6698 -3490 -3484 -3460 -3443 0
3490 3484 3460 3443 -6695 0
3490 3484 3460 -6696 0
3490 3484 3443 -6696 0
3490 3460 3443 -6696 0
3484 3460 3443 -6696 0
3490 3484 -6697 0
3490 3460 -6697 0
3490 3443 -6697 0
3484 3460 -6697 0
3484 3443 -6697 0
3460 3443 -6697 0
3490 -6698 0
3484 -6698 0
3460 -6698 0
3443 -6698 0
-6691 6699 0
-6692 6700 0
-6693 6701 0
-6694 3346 0
-6695 6699 0
-6696 6700 0
-6697 6701 0
-6698 3346 0
-6691 -6695 6700 0
-6691 -6696 6701 0
-6691 -6697 3346 0
-6692 -6695 6701 0
-6692 -6696 3346 0
-6693 -6695 3346 0
6691 6695 -6699 0
6691 6696 -6700 0
6692 6695 -6700 0
6691 6697 -6701 0
6692 6696 -6701 0
6693 6695 -6701 0
6691 6698 -3346 0
6692 6697 -3346 0
6693 6696 -3346 0
6694 6695 -3346 0
3451 6702 0
3454 6702 0
3476 6702 0
3504 6702 0
3451 3454 6703 0
3451 3476 6703 0
3451 3504 6703 0
3454 3476 6703 0
3454 3504 6703 0
3476 3504 6703 0
3451 3454 3476 6704 0
3451 3454 3504 6704 0
3451 3476 3504 6704 0
3454 3476 3504 6704 0
3451 3454 3476 3504 6705 0
-3454 -3504 -3451 -3476 -6702 0
-3454 -3451 -3476 -6703 0
-3454 -3504 -3451 -6703 0
-3504 -3451 -3476 -6703 0
-3454 -3504 -3476 -6703 0
-3454 -3451 -6704 0
-3451 -3476 -6704 0
-3504 -3451 -6704 0
-3454 -3476 -6704 0
-3454 -3504 -6704 0
-3504 -3476 -6704 0
-3451 -6705 0
-3454 -6705 0
-3476 -6705 0
-3504 -6705 0
3499 6706 0
3491 6706 0
3465 6706 0
3447 6706 0
3499 3491 6707 0
3499 3465 6707 0
3499 3447 6707 0
3491 3465 6707 0
3491 3447 6707 0
3465 3447 6707 0
3499 3491 3465 6708 0
3499 3491 3447 6708 0
3499 3465 3447 6708 0
3491 3465 3447 6708 0
3499 3491 3465 3447 6709 0
-3447 -3491 -3499 -3465 -6706 0
-3491 -3499 -3465 -6707 0
-3447 -3491 -3499 -6707 0
-3447 -3499 -3465 -6707 0
-3447 -3491 -3465 -6707 0
-3491 -3499 -6708 0
-3499 -3465 -6708 0
-3447 -3499 -6708 0
-3491 -3465 -6708 0
-3447 -3491 -6708 0
-3447 -3465 -6708 0
-3499 -6709 0
-3491 -6709 0
-3465 -6709 0
-3447 -6709 0
-6702 6710 0
-6703 6711 0
-6704 6712 0
-6705 3348 0
-6706 6710 0
-6707 6711 0
-6708 6712 0
-6709 3348 0
-6702 -6706 6711 0
-6702 -6707 6712 0
-6702 -6708 3348 0
-6703 -6706 6712 0
-6703 -6707 3348 0
-6704 -6706 3348 0
6702 6706 -6710 0
6702 6707 -6711 0
6703 6706 -6711 0
6702 6708 -6712 0
6703 6707 -6712 0
6704 6706 -6712 0
6702 6709 -3348 0
6703 6708 -3348 0
6704 6707 -3348 0
6705 6706 -3348 0
6713 -3451 0
6713 -3454 0
6713 -3476 0
6713 -3504 0
6714 -3451 -3454 0
6714 -3451 -3476 0
6714 -3451 -3504 0
6714 -3454 -3476 0
6714 -3454 -3504 0
6714 -3476 -3504 0
6715 -3451 -3454 -3476 0
6715 -3451 -3454 -3504 0
6715 -3451 -3476 -3504 0
6715 -3454 -3476 -3504 0
6716 -3451 -3454 -3476 -3504 0
3451 3454 3476 3504 -6713 0
3451 3454 3476 -6714 0
3451 3454 3504 -6714 0
3451 3476 3504 -6714 0
3454 3476 3504 -6714 0
3451 3454 -6715 0
3451 3476 -6715 0
3451 3504 -6715 0
3454 3476 -6715 0
3454 3504 -6715 0
3476 3504 -6715 0
3451 -6716 0
3454 -6716 0
3476 -6716 0
3504 -6716 0
6717 -3499 0
6717 -3491 0
6717 -3465 0
6717 -3447 0
6718 -3499 -3491 0
6718 -3499 -3465 0
6718 -3499 -3447 0
6718 -3491 -3465 0
6718 -3491 -3447 0
6718 -3465 -3447 0
6719 -3499 -3491 -3465 0
6719 -3499 -3491 -3447 0
6719 -3499 -3465 -3447 0
6719 -3491 -3465 -3447 0
6720 -3499 -3491 -3465 -3447 0
3499 3491 3465 3447 -6717 0
3499 3491 3465 -6718 0
3499 3491 3447 -6718 0
3499 3465 3447 -6718 0
3491 3465 3447 -6718 0
3499 3491 -6719 0
3499 3465 -6719 0
3499 3447 -6719 0
3491 3465 -6719 0
3491 3447 -6719 0
3465 3447 -6719 0
3499 -6720 0
3491 -6720 0
3465 -6720 0
3447 -6720 0
-6713 6721 0
-6714 6722 0
-6715 6723 0
-6716 3350 0
-6717 6721 0
-6718 6722 0
-6719 6723 0
-6720 3350 0
-6713 -6717 6722 0
-6713 -6718 6723 0
-6713 -6719 3350 0
-6714 -6717 6723 0
-6714 -6718 3350 0
-6715 -6717 3350 0
6713 6717 -6721 0
6713 6718 -6722 0
6714 6717 -6722 0
6713 6719 -6723 0
6714 6718 -6723 0
6715 6717 -6723 0
6713 6720 -3350 0
6714 6719 -3350 0
6715 6718 -3350 0
6716 6717 -3350 0
3354 6724 0
3355 6724 0
3353 6724 0
3356 6724 0
3352 6724 0
3354 3355 3358 0
3354 3353 3358 0
3354 3356 3358 0
3354 3352 3358 0
3355 3353 3358 0
3355 3356 3358 0
3355 3352 3358 0
3353 3356 3358 0
3353 3352 3358 0
3356 3352 3358 0
-3352 -3353 -3354 -3355 -3356 -6724 0
-3353 -3354 -3355 -3356 -3358 0
-3352 -3353 -3354 -3355 -3358 0
-3352 -3354 -3355 -3356 -3358 0
-3352 -3353 -3354 -3356 -3358 0
-3352 -3353 -3355 -3356 -3358 0
3362 6725 0
3360 6725 0
3363 6725 0
3361 6725 0
3364 6725 0
3362 3360 3366 0
3362 3363 3366 0
3362 3361 3366 0
3362 3364 3366 0
3360 3363 3366 0
3360 3361 3366 0
3360 3364 3366 0
3363 3361 3366 0
3363 3364 3366 0
3361 3364 3366 0
-3360 -3361 -3362 -3363 -3364 -6725 0
-3360 -3361 -3362 -3363 -3366 0
-3360 -3362 -3363 -3364 -3366 0
-3360 -3361 -3362 -3364 -3366 0
-3361 -3362 -3363 -3364 -3366 0
-3360 -3361 -3363 -3364 -3366 0
3461 6726 0
3466 6726 0
3492 6726 0
3517 6726 0
3461 3466 6727 0
3461 3492 6727 0
3461 3517 6727 0
3466 3492 6727 0
3466 3517 6727 0
3492 3517 6727 0
3461 3466 3492 6728 0
3461 3466 3517 6728 0
3461 3492 3517 6728 0
3466 3492 3517 6728 0
3461 3466 3492 3517 6729 0
-3466 -3517 -3461 -3492 -6726 0
-3466 -3461 -3492 -6727 0
-3466 -3517 -3461 -6727 0
-3517 -3461 -3492 -6727 0
-3466 -3517 -3492 -6727 0
-3466 -3461 -6728 0
-3461 -3492 -6728 0
-3517 -3461 -6728 0
-3466 -3492 -6728 0
-3466 -3517 -6728 0
-3517 -3492 -6728 0
-3461 -6729 0
-3466 -6729 0
-3492 -6729 0
-3517 -6729 0
3512 6730 0
3508 6730 0
3480 6730 0
3457 6730 0
3512 3508 6731 0
3512 3480 6731 0
3512 3457 6731 0
3508 3480 6731 0
3508 3457 6731 0
3480 3457 6731 0
3512 3508 3480 6732 0
3512 3508 3457 6732 0
3512 3480 3457 6732 0
3508 3480 3457 6732 0
3512 3508 3480 3457 6733 0
-3457 -3508 -3512 -3480 -6730 0
-3508 -3512 -3480 -6731 0
-3457 -3508 -3512 -6731 0
-3457 -3512 -3480 -6731 0
-3457 -3508 -3480 -6731 0
-3508 -3512 -6732 0
-3512 -3480 -6732 0
-3457 -3512 -6732 0
-3508 -3480 -6732 0
-3457 -3508 -6732 0
-3457 -3480 -6732 0
-3512 -6733 0
-3508 -6733 0
-3480 -6733 0
-3457 -6733 0
-6726 6734 0
-6727 6735 0
-6728 6736 0
-6729 3368 0
-6730 6734 0
-6731 6735 0
-6732 6736 0
-6733 3368 0
-6726 -6730 6735 0
-6726 -6731 6736 0
-6726 -6732 3368 0
-6727 -6730 6736 0
-6727 -6731 3368 0
-6728 -6730 3368 0
6726 6730 -6734 0
6726 6731 -6735 0
6727 6730 -6735 0
6726 6732 -6736 0
6727 6731 -6736 0
6728 6730 -6736 0
6726 6733 -3368 0
6727 6732 -3368 0
6728 6731 -3368 0
6729 6730 -3368 0
6737 -3461 0
6737 -3466 0
6737 -3492 0
6737 -3517 0
6738 -3461 -3466 0
6738 -3461 -3492 0
6738 -3461 -3517 0
6738 -3466 -3492 0
6738 -3466 -3517 0
6738 -3492 -3517 0
6739 -3461 -3466 -3492 0
6739 -3461 -3466 -3517 0
6739 -3461 -3492 -3517 0
6739 -3466 -3492 -3517 0
6740 -3461 -3466 -3492 -3517 0
3461 3466 3492 3517 -6737 0
3461 3466 3492 -6738 0
3461 3466 3517 -6738 0
3461 3492 3517 -6738 0
3466 3492 3517 -6738 0
3461 3466 -6739 0
3461 3492 -6739 0
3461 3517 -6739 0
3466 3492 -6739 0
3466 3517 -6739 0
3492 3517 -6739 0
3461 -6740 0
3466 -6740 0
3492 -6740 0
3517 -6740 0
6741 -3512 0
6741 -3508 0
6741 -3480 0
6741 -3457 0
6742 -3512 -3508 0
6742 -3512 -3480 0
6742 -3512 -3457 0
6742 -3508 -3480 0
6742 -3508 -3457 0
6742 -3480 -3457 0
6743 -3512 -3508 -3480 0
6743 -3512 -3508 -3457 0
6743 -3512 -3480 -3457 0
6743 -3508 -3480 -3457 0
6744 -3512 -3508 -3480 -3457 0
3512 3508 3480 3457 -6741 0
3512 3508 3480 -6742 0
3512 3508 3457 -6742 0
3512 3480 3457 -6742 0
3508 3480 3457 -6742 0
3512 3508 -6743 0
3512 3480 -6743 0
3512 3457 -6743 0
3508 3480 -6743 0
3508 3457 -6743 0
3480 3457 -6743 0
3512 -6744 0
3508 -6744 0
3480 -6744 0
3457 -6744 0
-6737 6745 0
-6738 6746 0
-6739 6747 0
-6740 3370 0
-6741 6745 0
-6742 6746 0
-6743 6747 0
-6744 3370 0
-6737 -6741 6746 0
-6737 -6742 6747 0
-6737 -6743 3370 0
-6738 -6741 6747 0
-6738 -6742 3370 0
-6739 -6741 3370 0
6737 6741 -6745 0
6737 6742 -6746 0
6738 6741 -6746 0
6737 6743 -6747 0
6738 6742 -6747 0
6739 6741 -6747 0
6737 6744 -3370 0
6738 6743 -3370 0
6739 6742 -3370 0
6740 6741 -3370 0
3467 6748 0
3472 6748 0
3500 6748 0
3523 6748 0
3467 3472 6749 0
3467 3500 6749 0
3467 3523 6749 0
3472 3500 6749 0
3472 3523 6749 0
3500 3523 6749 0
3467 3472 3500 6750 0
3467 3472 3523 6750 0
3467 3500 3523 6750 0
3472 3500 3523 6750 0
3467 3472 3500 3523 6751 0
-3472 -3523 -3467 -3500 -6748 0
-3472 -3467 -3500 -6749 0
-3472 -3523 -3467 -6749 0
-3523 -3467 -3500 -6749 0
-3472 -3523 -3500 -6749 0
-3472 -3467 -6750 0
-3467 -3500 -6750 0
-3523 -3467 -6750 0
-3472 -3500 -6750 0
-3472 -3523 -6750 0
-3523 -3500 -6750 0
-3467 -6751 0
-3472 -6751 0
-3500 -6751 0
-3523 -6751 0
3518 6752 0
3513 6752 0
3485 6752 0
3462 6752 0
3518 3513 6753 0
3518 3485 6753 0
3518 3462 6753 0
3513 3485 6753 0
3513 3462 6753 0
3485 3462 6753 0
3518 3513 3485 6754 0
3518 3513 3462 6754 0
3518 3485 3462 6754 0
3513 3485 3462 6754 0
3518 3513 3485 3462 6755 0
-3462 -3513 -3518 -3485 -6752 0
-3513 -3518 -3485 -6753 0
-3462 -3513 -3518 -6753 0
-3462 -3518 -3485 -6753 0
-3462 -3513 -3485 -6753 0
-3513 -3518 -6754 0
-3518 -3485 -6754 0
-3462 -3518 -6754 0
-3513 -3485 -6754 0
-3462 -3513 -6754 0
-3462 -3485 -6754 0
-3518 -6755 0
-3513 -6755 0
-3485 -6755 0
-3462 -6755 0
-6748 6756 0
-6749 6757 0
-6750 6758 0
-6751 3372 0
-6752 6756 0
-6753 6757 0
-6754 6758 0
-6755 3372 0
-6748 -6752 6757 0
-6748 -6753 6758 0
-6748 -6754 3372 0
-6749 -6752 6758 0
-6749 -6753 3372 0
-6750 -6752 3372 0
6748 6752 -6756 0
6748 6753 -6757 0
6749 6752 -6757 0
6748 6754 -6758 0
6749 6753 -6758 0
6750 6752 -6758 0
6748 6755 -3372 0
6749 6754 -3372 0
6750 6753 -3372 0
6751 6752 -3372 0
6759 -3467 0
6759 -3472 0
6759 -3500 0
6759 -3523 0
6760 -3467 -3472 0
6760 -3467 -3500 0
6760 -3467 -3523 0
6760 -3472 -3500 0
6760 -3472 -3523 0
6760 -3500 -3523 0
6761 -3467 -3472 -3500 0
6761 -3467 -3472 -3523 0
6761 -3467 -3500 -3523 0
6761 -3472 -3500 -3523 0
6762 -3467 -3472 -3500 -3523 0
3467 3472 3500 3523 -6759 0
3467 3472 3500 -6760 0
3467 3472 3523 -6760 0
3467 3500 3523 -6760 0
3472 3500 3523 -6760 0
3467 3472 -6761 0
3467 3500 -6761 0
3467 3523 -6761 0
3472 3500 -6761 0
3472 3523 -6761 0
3500 3523 -6761 0
3467 -6762 0
3472 -6762 0
3500 -6762 0
3523 -6762 0
6763 -3518 0
6763 -3513 0
6763 -3485 0
6763 -3462 0
6764 -3518 -3513 0
6764 -3518 -3485 0
6764 -3518 -3462 0
6764 -3513 -3485 0
6764 -3513 -3462 0
6764 -3485 -3462 0
6765 -3518 -3513 -3485 0
6765 -3518 -3513 -3462 0
6765 -3518 -3485 -3462 0
6765 -3513 -3485 -3462 0
6766 -3518 -3513 -3485 -3462 0
3518 3513 3485 3462 -6763 0
3518 3513 3485 -6764 0
3518 3513 3462 -6764 0
3518 3485 3462 -6764 0
3513 3485 3462 -6764 0
3518 3513 -6765 0
3518 3485 -6765 0
3518 3462 -6765 0
3513 3485 -6765 0
3513 3462 -6765 0
3485 3462 -6765 0
3518 -6766 0
3513 -6766 0
3485 -6766 0
3462 -6766 0
-6759 6767 0
-6760 6768 0
-6761 6769 0
-6762 3374 0
-6763 6767 0
-6764 6768 0
-6765 6769 0
-6766 3374 0
-6759 -6763 6768 0
-6759 -6764 6769 0
-6759 -6765 3374 0
-6760 -6763 6769 0
-6760 -6764 3374 0
-6761 -6763 3374 0
6759 6763 -6767 0
6759 6764 -6768 0
6760 6763 -6768 0
6759 6765 -6769 0
6760 6764 -6769 0
6761 6763 -6769 0
6759 6766 -3374 0
6760 6765 -3374 0
6761 6764 -3374 0
6762 6763 -3374 0
3473 6770 0
3477 6770 0
3505 6770 0
3528 6770 0
3473 3477 6771 0
3473 3505 6771 0
3473 3528 6771 0
3477 3505 6771 0
3477 3528 6771 0
3505 3528 6771 0
3473 3477 3505 6772 0
3473 3477 3528 6772 0
3473 3505 3528 6772 0
3477 3505 3528 6772 0
3473 3477 3505 3528 6773 0
-3477 -3528 -3473 -3505 -6770 0
-3477 -3473 -3505 -6771 0
-3477 -3528 -3473 -6771 0
-3528 -3473 -3505 -6771 0
-3477 -3528 -3505 -6771 0
-3477 -3473 -6772 0
-3473 -3505 -6772 0
-3528 -3473 -6772 0
-3477 -3505 -6772 0
-3477 -3528 -6772 0
-3528 -3505 -6772 0
-3473 -6773 0
-3477 -6773 0
-3505 -6773 0
-3528 -6773 0
3524 6774 0
3519 6774 0
3493 6774 0
3468 6774 0
3524 3519 6775 0
3524 3493 6775 0
3524 3468 6775 0
3519 3493 6775 0
3519 3468 6775 0
3493 3468 6775 0
3524 3519 3493 6776 0
3524 3519 3468 6776 0
3524 3493 3468 6776 0
3519 3493 3468 6776 0
3524 3519 3493 3468 6777 0
-3468 -3519 -3524 -3493 -6774 0
-3519 -3524 -3493 -6775 0
-3468 -3519 -3524 -6775 0
-3468 -3524 -3493 -6775 0
-3468 -3519 -3493 -6775 0
-3519 -3524 -6776 0
-3524 -3493 -6776 0
-3468 -3524 -6776 0
-3519 -3493 -6776 0
-3468 -3519 -6776 0
-3468 -3493 -6776 0
-3524 -6777 0
-3519 -6777 0
-3493 -6777 0
-3468 -6777 0
-6770 6778 0
-6771 6779 0
-6772 6780 0
-6773 3376 0
-6774 6778 0
-6775 6779 0
-6776 6780 0
-6777 3376 0
-6770 -6774 6779 0
-6770 -6775 6780 0
-6770 -6776 3376 0
-6771 -6774 6780 0
-6771 -6775 3376 0
-6772 -6774 3376 0
6770 6774 -6778 0
6770 6775 -6779 0
6771 6774 -6779 0
6770 6776 -6780 0
6771 6775 -6780 0
6772 6774 -6780 0
6770 6777 -3376 0
6771 6776 -3376 0
6772 6775 -3376 0
6773 6774 -3376 0
6781 -3473 0
6781 -3477 0
6781 -3505 0
6781 -3528 0
6782 -3473 -3477 0
6782 -3473 -3505 0
6782 -3473 -3528 0
6782 -3477 -3505 0
6782 -3477 -3528 0
6782 -3505 -3528 0
6783 -3473 -3477 -3505 0
6783 -3473 -3477 -3528 0
6783 -3473 -3505 -3528 0
6783 -3477 -3505 -3528 0
6784 -3473 -3477 -3505 -3528 0
3473 3477 3505 3528 -6781 0
3473 3477 3505 -6782 0
3473 3477 3528 -6782 0
3473 3505 3528 -6782 0
3477 3505 3528 -6782 0
3473 3477 -6783 0
3473 3505 -6783 0
3473 3528 -6783 0
3477 3505 -6783 0
3477 3528 -6783 0
3505 3528 -6783 0
3473 -6784 0
3477 -6784 0
3505 -6784 0
3528 -6784 0
6785 -3524 0
6785 -3519 0
6785 -3493 0
6785 -3468 0
6786 -3524 -3519 0
6786 -3524 -3493 0
6786 -3524 -3468 0
6786 -3519 -3493 0
6786 -3519 -3468 0
6786 -3493 -3468 0
6787 -3524 -3519 -3493 0
6787 -3524 -3519 -3468 0
6787 -3524 -3493 -3468 0
6787 -3519 -3493 -3468 0
6788 -3524 -3519 -3493 -3468 0
3524 3519 3493 3468 -6785 0
3524 3519 3493 -6786 0
3524 3519 3468 -6786 0
3524 3493 3468 -6786 0
3519 3493 3468 -6786 0
3524 3519 -6787 0
3524 3493 -6787 0
3524 3468 -6787 0
3519 3493 -6787 0
3519 3468 -6787 0
3493 3468 -6787 0
3524 -6788 0
3519 -6788 0
3493 -6788 0
3468 -6788 0
-6781 6789 0
-6782 6790 0
-6783 6791 0
-6784 3378 0
-6785 6789 0
-6786 6790 0
-6787 6791 0
-6788 3378 0
-6781 -6785 6790 0
-6781 -6786 6791 0
-6781 -6787 3378 0
-6782 -6785 6791 0
-6782 -6786 3378 0
-6783 -6785 3378 0
6781 6785 -6789 0
6781 6786 -6790 0
6782 6785 -6790 0
6781 6787 -6791 0
6782 6786 -6791 0
6783 6785 -6791 0
6781 6788 -3378 0
6782 6787 -3378 0
6783 6786 -3378 0
6784 6785 -3378 0
3382 6792 0
3383 6792 0
3381 6792 0
3384 6792 0
3380 6792 0
3382 3383 3386 0
3382 3381 3386 0
3382 3384 3386 0
3382 3380 3386 0
3383 3381 3386 0
3383 3384 3386 0
3383 3380 3386 0
3381 3384 3386 0
3381 3380 3386 0
3384 3380 3386 0
-3380 -3381 -3382 -3383 -3384 -6792 0
-3381 -3382 -3383 -3384 -3386 0
-3380 -3381 -3382 -3383 -3386 0
-3380 -3382 -3383 -3384 -3386 0
-3380 -3381 -3382 -3384 -3386 0
-3380 -3381 -3383 -3384 -3386 0
3390 6793 0
3388 6793 0
3391 6793 0
3389 6793 0
3392 6793 0
3390 3388 3394 0
3390 3391 3394 0
3390 3389 3394 0
3390 3392 3394 0
3388 3391 3394 0
3388 3389 3394 0
3388 3392 3394 0
3391 3389 3394 0
3391 3392 3394 0
3389 3392 3394 0
-3388 -3389 -3390 -3391 -3392 -6793 0
-3388 -3389 -3390 -3391 -3394 0
-3388 -3390 -3391 -3392 -3394 0
-3388 -3389 -3390 -3392 -3394 0
-3389 -3390 -3391 -3392 -3394 0
-3388 -3389 -3391 -3392 -3394 0
3486 6794 0
3494 6794 0
3520 6794 0
3538 6794 0
3486 3494 6795 0
3486 3520 6795 0
3486 3538 6795 0
3494 3520 6795 0
3494 3538 6795 0
3520 3538 6795 0
3486 3494 3520 6796 0
3486 3494 3538 6796 0
3486 3520 3538 6796 0
3494 3520 3538 6796 0
3486 3494 3520 3538 6797 0
-3494 -3538 -3486 -3520 -6794 0
-3494 -3486 -3520 -6795 0
-3494 -3538 -3486 -6795 0
-3538 -3486 -3520 -6795 0
-3494 -3538 -3520 -6795 0
-3494 -3486 -6796 0
-3486 -3520 -6796 0
-3538 -3486 -6796 0
-3494 -3520 -6796 0
-3494 -3538 -6796 0
-3538 -3520 -6796 0
-3486 -6797 0
-3494 -6797 0
-3520 -6797 0
-3538 -6797 0
3534 6798 0
3533 6798 0
3509 6798 0
3481 6798 0
3534 3533 6799 0
3534 3509 6799 0
3534 3481 6799 0
3533 3509 6799 0
3533 3481 6799 0
3509 3481 6799 0
3534 3533 3509 6800 0
3534 3533 3481 6800 0
3534 3509 3481 6800 0
3533 3509 3481 6800 0
3534 3533 3509 3481 6801 0
-3481 -3533 -3534 -3509 -6798 0
-3533 -3534 -3509 -6799 0
-3481 -3533 -3534 -6799 0
-3481 -3534 -3509 -6799 0
-3481 -3533 -3509 -6799 0
-3533 -3534 -6800 0
-3534 -3509 -6800 0
-3481 -3534 -6800 0
-3533 -3509 -6800 0
-3481 -3533 -6800 0
-3481 -3509 -6800 0
-3534 -6801 0
-3533 -6801 0
-3509 -6801 0
-3481 -6801 0
-6794 6802 0
-6795 6803 0
-6796 6804 0
-6797 3396 0
-6798 6802 0
-6799 6803 0
-6800 6804 0
-6801 3396 0
-6794 -6798 6803 0
-6794 -6799 6804 0
-6794 -6800 3396 0
-6795 -6798 6804 0
-6795 -6799 3396 0
-6796 -6798 3396 0
6794 6798 -6802 0
6794 6799 -6803 0
6795 6798 -6803 0
6794 6800 -6804 0
6795 6799 -6804 0
6796 6798 -6804 0
6794 6801 -3396 0
6795 6800 -3396 0
6796 6799 -3396 0
6797 6798 -3396 0
6805 -3486 0
6805 -3494 0
6805 -3520 0
6805 -3538 0
6806 -3486 -3494 0
6806 -3486 -3520 0
6806 -3486 -3538 0
6806 -3494 -3520 0
6806 -3494 -3538 0
6806 -3520 -3538 0
6807 -3486 -3494 -3520 0
6807 -3486 -3494 -3538 0
6807 -3486 -3520 -3538 0
6807 -3494 -3520 -3538 0
6808 -3486 -3494 -3520 -3538 0
3486 3494 3520 3538 -6805 0
3486 3494 3520 -6806 0
3486 3494 3538 -6806 0
3486 3520 3538 -6806 0
3494 3520 3538 -6806 0
3486 3494 -6807 0
3486 3520 -6807 0
3486 3538 -6807 0
3494 3520 -6807 0
3494 3538 -6807 0
3520 3538 -6807 0
3486 -6808 0
3494 -6808 0
3520 -6808 0
3538 -6808 0
6809 -3534 0
6809 -3533 0
6809 -3509 0
6809 -3481 0
6810 -3534 -3533 0
6810 -3534 -3509 0
6810 -3534 -3481 0
6810 -3533 -3509 0
6810 -3533 -3481 0
6810 -3509 -3481 0
6811 -3534 -3533 -3509 0
6811 -3534 -3533 -3481 0
6811 -3534 -3509 -3481 0
6811 -3533 -3509 -3481 0
6812 -3534 -3533 -3509 -3481 0
3534 3533 3509 3481 -6809 0
3534 3533 3509 -6810 0
3534 3533 3481 -6810 0
3534 3509 3481 -6810 0
3533 3509 3481 -6810 0
3534 3533 -6811 0
3534 3509 -6811 0
3534 3481 -6811 0
3533 3509 -6811 0
3533 3481 -6811 0
3509 3481 -6811 0
3534 -6812 0
3533 -6812 0
3509 -6812 0
3481 -6812 0
-6805 6813 0
-6806 6814 0
-6807 6815 0
-6808 3398 0
-6809 6813 0
-6810 6814 0
-6811 6815 0
-6812 3398 0
-6805 -6809 6814 0
-6805 -6810 6815 0
-6805 -6811 3398 0
-6806 -6809 6815 0
-6806 -6810 3398 0
-6807 -6809 3398 0
6805 6809 -6813 0
6805 6810 -6814 0
6806 6809 -6814 0
6805 6811 -6815 0
6806 6810 -6815 0
6807 6809 -6815 0
6805 6812 -3398 0
6806 6811 -3398 0
6807 6810 -3398 0
6808 6809 -3398 0
3495 6816 0
3501 6816 0
3525 6816 0
3542 6816 0
3495 3501 6817 0
3495 3525 6817 0
3495 3542 6817 0
3501 3525 6817 0
3501 3542 6817 0
3525 3542 6817 0
3495 3501 3525 6818 0
3495 3501 3542 6818 0
3495 3525 3542 6818 0
3501 3525 3542 6818 0
3495 3501 3525 3542 6819 0
-3501 -3542 -3495 -3525 -6816 0
-3501 -3495 -3525 -6817 0
-3501 -3542 -3495 -6817 0
-3542 -3495 -3525 -6817 0
-3501 -3542 -3525 -6817 0
-3501 -3495 -6818 0
-3495 -3525 -6818 0
-3542 -3495 -6818 0
-3501 -3525 -6818 0
-3501 -3542 -6818 0
-3542 -3525 -6818 0
-3495 -6819 0
-3501 -6819 0
-3525 -6819 0
-3542 -6819 0
3539 6820 0
3535 6820 0
3514 6820 0
3487 6820 0
3539 3535 6821 0
3539 3514 6821 0
3539 3487 6821 0
3535 3514 6821 0
3535 3487 6821 0
3514 3487 6821 0
3539 3535 3514 6822 0
3539 3535 3487 6822 0
3539 3514 3487 6822 0
3535 3514 3487 6822 0
3539 3535 3514 3487 6823 0
-3487 -3535 -3539 -3514 -6820 0
-3535 -3539 -3514 -6821 0
-3487 -3535 -3539 -6821 0
-3487 -3539 -3514 -6821 0
-3487 -3535 -3514 -6821 0
-3535 -3539 -6822 0
-3539 -3514 -6822 0
-3487 -3539 -6822 0
-3535 -3514 -6822 0
-3487 -3535 -6822 0
-3487 -3514 -6822 0
-3539 -6823 0
-3535 -6823 0
-3514 -6823 0
-3487 -6823 0
-6816 6824 0
-6817 6825 0
-6818 6826 0
-6819 3400 0
-6820 6824 0
-6821 6825 0
-6822 6826 0
-6823 3400 0
-6816 -6820 6825 0
-6816 -6821 6826 0
-6816 -6822 3400 0
-6817 -6820 6826 0
-6817 -6821 3400 0
-6818 -6820 3400 0
6816 6820 -6824 0
6816 6821 -6825 0
6817 6820 -6825 0
6816 6822 -6826 0
6817 6821 -6826 0
6818 6820 -6826 0
6816 6823 -3400 0
6817 6822 -3400 0
6818 6821 -3400 0
6819 6820 -3400 0
6827 -3495 0
6827 -3501 0
6827 -3525 0
6827 -3542 0
6828 -3495 -3501 0
6828 -3495 -3525 0
6828 -3495 -3542 0
6828 -3501 -3525 0
6828 -3501 -3542 0
6828 -3525 -3542 0
6829 -3495 -3501 -3525 0
6829 -3495 -3501 -3542 0
6829 -3495 -3525 -3542 0
6829 -3501 -3525 -3542 0
6830 -3495 -3501 -3525 -3542 0
3495 3501 3525 3542 -6827 0
3495 3501 3525 -6828 0
3495 3501 3542 -6828 0
3495 3525 3542 -6828 0
3501 3525 3542 -6828 0
3495 3501 -6829 0
3495 3525 -6829 0
3495 3542 -6829 0
3501 3525 -6829 0
3501 3542 -6829 0
3525 3542 -6829 0
3495 -6830 0
3501 -6830 0
3525 -6830 0
3542 -6830 0
6831 -3539 0
6831 -3535 0
6831 -3514 0
6831 -3487 0
6832 -3539 -3535 0
6832 -3539 -3514 0
6832 -3539 -3487 0
6832 -3535 -3514 0
6832 -3535 -3487 0
6832 -3514 -3487 0
6833 -3539 -3535 -3514 0
6833 -3539 -3535 -3487 0
6833 -3539 -3514 -3487 0
6833 -3535 -3514 -3487 0
6834 -3539 -3535 -3514 -3487 0
3539 3535 3514 3487 -6831 0
3539 3535 3514 -6832 0
3539 3535 3487 -6832 0
3539 3514 3487 -6832 0
3535 3514 3487 -6832 0
3539 3535 -6833 0
3539 3514 -6833 0
3539 3487 -6833 0
3535 3514 -6833 0
3535 3487 -6833 0
3514 3487 -6833 0
3539 -6834 0
3535 -6834 0
3514 -6834 0
3487 -6834 0
-6827 6835 0
-6828 6836 0
-6829 6837 0
-6830 3402 0
-6831 6835 0
-6832 6836 0
-6833 6837 0
-6834 3402 0
-6827 -6831 6836 0
-6827 -6832 6837 0
-6827 -6833 3402 0
-6828 -6831 6837 0
-6828 -6832 3402 0
-6829 -6831 3402 0
6827 6831 -6835 0
6827 6832 -6836 0
6828 6831 -6836 0
6827 6833 -6837 0
6828 6832 -6837 0
6829 6831 -6837 0
6827 6834 -3402 0
6828 6833 -3402 0
6829 6832 -3402 0
6830 6831 -3402 0
3502 6838 0
3506 6838 0
3529 6838 0
3547 6838 0
3502 3506 6839 0
3502 3529 6839 0
3502 3547 6839 0
3506 3529 6839 0
3506 3547 6839 0
3529 3547 6839 0
3502 3506 3529 6840 0
3502 3506 3547 6840 0
3502 3529 3547 6840 0
3506 3529 3547 6840 0
3502 3506 3529 3547 6841 0
-3506 -3547 -3502 -3529 -6838 0
-3506 -3502 -3529 -6839 0
-3506 -3547 -3502 -6839 0
-3547 -3502 -3529 -6839 0
-3506 -3547 -3529 -6839 0
-3506 -3502 -6840 0
-3502 -3529 -6840 0
-3547 -3502 -6840 0
-3506 -3529 -6840 0
-3506 -3547 -6840 0
-3547 -3529 -6840 0
-3502 -6841 0
-3506 -6841 0
-3529 -6841 0
-3547 -6841 0
3543 6842 0
3540 6842 0
3521 6842 0
3496 6842 0
3543 3540 6843 0
3543 3521 6843 0
3543 3496 6843 0
3540 3521 6843 0
3540 3496 6843 0
3521 3496 6843 0
3543 3540 3521 6844 0
3543 3540 3496 6844 0
3543 3521 3496 6844 0
3540 3521 3496 6844 0
3543 3540 3521 3496 6845 0
-3496 -3540 -3543 -3521 -6842 0
-3540 -3543 -3521 -6843 0
-3496 -3540 -3543 -6843 0
-3496 -3543 -3521 -6843 0
-3496 -3540 -3521 -6843 0
-3540 -3543 -6844 0
-3543 -3521 -6844 0
-3496 -3543 -6844 0
-3540 -3521 -6844 0
-3496 -3540 -6844 0
-3496 -3521 -6844 0
-3543 -6845 0
-3540 -6845 0
-3521 -6845 0
-3496 -6845 0
-6838 6846 0
-6839 6847 0
-6840 6848 0
-6841 3404 0
-6842 6846 0
-6843 6847 0
-6844 6848 0
-6845 3404 0
-6838 -6842 6847 0
-6838 -6843 6848 0
-6838 -6844 3404 0
-6839 -6842 6848 0
-6839 -6843 3404 0
-6840 -6842 3404 0
6838 6842 -6846 0
6838 6843 -6847 0
6839 6842 -6847 0
6838 6844 -6848 0
6839 6843 -6848 0
6840 6842 -6848 0
6838 6845 -3404 0
6839 6844 -3404 0
6840 6843 -3404 0
6841 6842 -3404 0
6849 -3502 0
6849 -3506 0
6849 -3529 0
6849 -3547 0
6850 -3502 -3506 0
6850 -3502 -3529 0
6850 -3502 -3547 0
6850 -3506 -3529 0
6850 -3506 -3547 0
6850 -3529 -3547 0
6851 -3502 -3506 -3529 0
6851 -3502 -3506 -3547 0
6851 -3502 -3529 -3547 0
6851 -3506 -3529 -3547 0
6852 -3502 -3506 -3529 -3547 0
3502 3506 3529 3547 -6849 0
3502 3506 3529 -6850 0
3502 3506 3547 -6850 0
3502 3529 3547 -6850 0
3506 3529 3547 -6850 0
3502 3506 -6851 0
3502 3529 -6851 0
3502 3547 -6851 0
3506 3529 -6851 0
3506 3547 -6851 0
3529 3547 -6851 0
3502 -6852 0
3506 -6852 0
3529 -6852 0
3547 -6852 0
6853 -3543 0
6853 -3540 0
6853 -3521 0
6853 -3496 0
6854 -3543 -3540 0
6854 -3543 -3521 0
6854 -3543 -3496 0
6854 -3540 -3521 0
6854 -3540 -3496 0
6854 -3521 -3496 0
6855 -3543 -3540 -3521 0
6855 -3543 -3540 -3496 0
6855 -3543 -3521 -3496 0
6855 -3540 -3521 -3496 0
6856 -3543 -3540 -3521 -3496 0
3543 3540 3521 3496 -6853 0
3543 3540 3521 -6854 0
3543 3540 3496 -6854 0
3543 3521 3496 -6854 0
3540 3521 3496 -6854 0
3543 3540 -6855 0
3543 3521 -6855 0
3543 3496 -6855 0
3540 3521 -6855 0
3540 3496 -6855 0
3521 3496 -6855 0
3543 -6856 0
3540 -6856 0
3521 -6856 0
3496 -6856 0
-6849 6857 0
-6850 6858 0
-6851 6859 0
-6852 3406 0
-6853 6857 0
-6854 6858 0
-6855 6859 0
-6856 3406 0
-6849 -6853 6858 0
-6849 -6854 6859 0
-6849 -6855 3406 0
-6850 -6853 6859 0
-6850 -6854 3406 0
-6851 -6853 3406 0
6849 6853 -6857 0
6849 6854 -6858 0
6850 6853 -6858 0
6849 6855 -6859 0
6850 6854 -6859 0
6851 6853 -6859 0
6849 6856 -3406 0
6850 6855 -3406 0
6851 6854 -3406 0
6852 6853 -3406 0
3410 6860 0
3411 6860 0
3409 6860 0
3412 6860 0
3408 6860 0
3410 3411 3414 0
3410 3409 3414 0
3410 3412 3414 0
3410 3408 3414 0
3411 3409 3414 0
3411 3412 3414 0
3411 3408 3414 0
3409 3412 3414 0
3409 3408 3414 0
3412 3408 3414 0
-3408 -3409 -3410 -3411 -3412 -6860 0
-3409 -3410 -3411 -3412 -3414 0
-3408 -3409 -3410 -3411 -3414 0
-3408 -3410 -3411 -3412 -3414 0
-3408 -3409 -3410 -3412 -3414 0
-3408 -3409 -3411 -3412 -3414 0
3418 6861 0
3416 6861 0
3419 6861 0
3420 6861 0
3417 6861 0
3418 3416 3422 0
3418 3419 3422 0
3418 3420 3422 0
3418 3417 3422 0
3416 3419 3422 0
3416 3420 3422 0
3416 3417 3422 0
3419 3420 3422 0
3419 3417 3422 0
3420 3417 3422 0
-3416 -3417 -3418 -3419 -3420 -6861 0
-3416 -3418 -3419 -3420 -3422 0
-3416 -3417 -3418 -3419 -3422 0
-3416 -3417 -3418 -3420 -3422 0
-3417 -3418 -3419 -3420 -3422 0
-3416 -3417 -3419 -3420 -3422 0
3426 6862 0
3424 6862 0
3427 6862 0
3428 6862 0
3425 6862 0
3426 3424 3430 0
3426 3427 3430 0
3426 3428 3430 0
3426 3425 3430 0
3424 3427 3430 0
3424 3428 3430 0
3424 3425 3430 0
3427 3428 3430 0
3427 3425 3430 0
3428 3425 3430 0
-3424 -3425 -3426 -3427 -3428 -6862 0
-3424 -3426 -3427 -3428 -3430 0
-3424 -3425 -3426 -3427 -3430 0
-3424 -3425 -3426 -3428 -3430 0
-3425 -3426 -3427 -3428 -3430 0
-3424 -3425 -3427 -3428 -3430 0
3434 6863 0
3432 6863 0
3435 6863 0
3436 6863 0
3433 6863 0
3434 3432 3438 0
3434 3435 3438 0
3434 3436 3438 0
3434 3433 3438 0
3432 3435 3438 0
3432 3436 3438 0
3432 3433 3438 0
3435 3436 3438 0
3435 3433 3438 0
3436 3433 3438 0
-3432 -3433 -3434 -3435 -3436 -6863 0
-3432 -3434 -3435 -3436 -3438 0
-3432 -3433 -3434 -3435 -3438 0
-3432 -3433 -3434 -3436 -3438 0
-3433 -3434 -3435 -3436 -3438 0
-3432 -3433 -3435 -3436 -3438 0
3441 6864 0
3320 6864 0
3332 6864 0
3442 6864 0
3443 6864 0
3441 3320 3444 0
3441 3332 3444 0
3441 3442 3444 0
3441 3443 3444 0
3320 3332 3444 0
3320 3442 3444 0
3320 3443 3444 0
3332 3442 3444 0
3332 3443 3444 0
3442 3443 3444 0
-3332 -3443 -3441 -3320 -3442 -6864 0
-3332 -3441 -3320 -3442 -3444 0
-3332 -3443 -3441 -3320 -3444 0
-3443 -3441 -3320 -3442 -3444 0
-3332 -3443 -3441 -3442 -3444 0
-3332 -3443 -3320 -3442 -3444 0
3310 6865 0
3328 6865 0
3445 6865 0
3446 6865 0
3447 6865 0
3310 3328 3448 0
3310 3445 3448 0
3310 3446 3448 0
3310 3447 3448 0
3328 3445 3448 0
3328 3446 3448 0
3328 3447 3448 0
3445 3446 3448 0
3445 3447 3448 0
3446 3447 3448 0
-3445 -3447 -3310 -3328 -3446 -6865 0
-3445 -3310 -3328 -3446 -3448 0
-3445 -3447 -3310 -3328 -3448 0
-3447 -3310 -3328 -3446 -3448 0
-3445 -3447 -3310 -3446 -3448 0
-3445 -3447 -3328 -3446 -3448 0
3318 6866 0
3449 6866 0
3450 6866 0
3451 6866 0
3352 6866 0
3318 3449 3452 0
3318 3450 3452 0
3318 3451 3452 0
3318 3352 3452 0
3449 3450 3452 0
3449 3451 3452 0
3449 3352 3452 0
3450 3451 3452 0
3450 3352 3452 0
3451 3352 3452 0
-3450 -3352 -3318 -3449 -3451 -6866 0
-3450 -3318 -3449 -3451 -3452 0
-3450 -3352 -3318 -3449 -3452 0
-3352 -3318 -3449 -3451 -3452 0
-3450 -3352 -3318 -3451 -3452 0
-3450 -3352 -3449 -3451 -3452 0
3455 6867 0
3308 6867 0
3456 6867 0
3362 6867 0
3457 6867 0
3455 3308 3458 0
3455 3456 3458 0
3455 3362 3458 0
3455 3457 3458 0
3308 3456 3458 0
3308 3362 3458 0
3308 3457 3458 0
3456 3362 3458 0
3456 3457 3458 0
3362 3457 3458 0
-3308 -3457 -3455 -3456 -3362 -6867 0
-3308 -3455 -3456 -3362 -3458 0
-3308 -3457 -3455 -3456 -3458 0
-3308 -3457 -3455 -3362 -3458 0
-3457 -3455 -3456 -3362 -3458 0
-3308 -3457 -3456 -3362 -3458 0
6868 -3459 0
6868 -3311 0
6868 -3316 0
6868 -3335 0
6869 -3459 -3311 0
6869 -3459 -3316 0
6869 -3459 -3335 0
6869 -3311 -3316 0
6869 -3311 -3335 0
6869 -3316 -3335 0
6870 -3459 -3311 -3316 0
6870 -3459 -3311 -3335 0
6870 -3459 -3316 -3335 0
6870 -3311 -3316 -3335 0
6871 -3459 -3311 -3316 -3335 0
3459 3311 3316 3335 -6868 0
3459 3311 3316 -6869 0
3459 3311 3335 -6869 0
3459 3316 3335 -6869 0
3311 3316 3335 -6869 0
3459 3311 -6870 0
3459 3316 -6870 0
3459 3335 -6870 0
3311 3316 -6870 0
3311 3335 -6870 0
3316 3335 -6870 0
3459 -6871 0
3311 -6871 0
3316 -6871 0
3335 -6871 0
6872 -3460 0
6872 -3360 0
6872 -3461 0
6872 -3462 0
6873 -3460 -3360 0
6873 -3460 -3461 0
6873 -3460 -3462 0
6873 -3360 -3461 0
6873 -3360 -3462 0
6873 -3461 -3462 0
6874 -3460 -3360 -3461 0
6874 -3460 -3360 -3462 0
6874 -3460 -3461 -3462 0
6874 -3360 -3461 -3462 0
6875 -3460 -3360 -3461 -3462 0
3460 3360 3461 3462 -6872 0
3460 3360 3461 -6873 0
3460 3360 3462 -6873 0
3460 3461 3462 -6873 0
3360 3461 3462 -6873 0
3460 3360 -6874 0
3460 3461 -6874 0
3460 3462 -6874 0
3360 3461 -6874 0
3360 3462 -6874 0
3461 3462 -6874 0
3460 -6875 0
3360 -6875 0
3461 -6875 0
3462 -6875 0
-6868 6876 0
-6869 6877 0
-6870 6878 0
-6871 3463 0
-6872 6876 0
-6873 6877 0
-6874 6878 0
-6875 3463 0
-6868 -6872 6877 0
-6868 -6873 6878 0
-6868 -6874 3463 0
-6869 -6872 6878 0
-6869 -6873 3463 0
-6870 -6872 3463 0
6868 6872 -6876 0
6868 6873 -6877 0
6869 6872 -6877 0
6868 6874 -6878 0
6869 6873 -6878 0
6870 6872 -6878 0
6868 6875 -3463 0
6869 6874 -3463 0
6870 6873 -3463 0
6871 6872 -3463 0
6879 -3309 0
6879 -3319 0
6879 -3324 0
6879 -3464 0
6880 -3309 -3319 0
6880 -3309 -3324 0
6880 -3309 -3464 0
6880 -3319 -3324 0
6880 -3319 -3464 0
6880 -3324 -3464 0
6881 -3309 -3319 -3324 0
6881 -3309 -3319 -3464 0
6881 -3309 -3324 -3464 0
6881 -3319 -3324 -3464 0
6882 -3309 -3319 -3324 -3464 0
3309 3319 3324 3464 -6879 0
3309 3319 3324 -6880 0
3309 3319 3464 -6880 0
3309 3324 3464 -6880 0
3319 3324 3464 -6880 0
3309 3319 -6881 0
3309 3324 -6881 0
3309 3464 -6881 0
3319 3324 -6881 0
3319 3464 -6881 0
3324 3464 -6881 0
3309 -6882 0
3319 -6882 0
3324 -6882 0
3464 -6882 0
6883 -3465 0
6883 -3466 0
6883 -3467 0
6883 -3468 0
6884 -3465 -3466 0
6884 -3465 -3467 0
6884 -3465 -3468 0
6884 -3466 -3467 0
6884 -3466 -3468 0
6884 -3467 -3468 0
6885 -3465 -3466 -3467 0
6885 -3465 -3466 -3468 0
6885 -3465 -3467 -3468 0
6885 -3466 -3467 -3468 0
6886 -3465 -3466 -3467 -3468 0
3465 3466 3467 3468 -6883 0
3465 3466 3467 -6884 0
3465 3466 3468 -6884 0
3465 3467 3468 -6884 0
3466 3467 3468 -6884 0
3465 3466 -6885 0
3465 3467 -6885 0
3465 3468 -6885 0
3466 3467 -6885 0
3466 3468 -6885 0
3467 3468 -6885 0
3465 -6886 0
3466 -6886 0
3467 -6886 0
3468 -6886 0
-6879 6887 0
-6880 6888 0
-6881 6889 0
-6882 3469 0
-6883 6887 0
-6884 6888 0
-6885 6889 0
-6886 3469 0
-6879 -6883 6888 0
-6879 -6884 6889 0
-6879 -6885 3469 0
-6880 -6883 6889 0
-6880 -6884 3469 0
-6881 -6883 3469 0
6879 6883 -6887 0
6879 6884 -6888 0
6880 6883 -6888 0
6879 6885 -6889 0
6880 6884 -6889 0
6881 6883 -6889 0
6879 6886 -3469 0
6880 6885 -3469 0
6881 6884 -3469 0
6882 6883 -3469 0
6890 -3317 0
6890 -3327 0
6890 -3470 0
6890 -3471 0
6891 -3317 -3327 0
6891 -3317 -3470 0
6891 -3317 -3471 0
6891 -3327 -3470 0
6891 -3327 -3471 0
6891 -3470 -3471 0
6892 -3317 -3327 -3470 0
6892 -3317 -3327 -3471 0
6892 -3317 -3470 -3471 0
6892 -3327 -3470 -3471 0
6893 -3317 -3327 -3470 -3471 0
3317 3327 3470 3471 -6890 0
3317 3327 3470 -6891 0
3317 3327 3471 -6891 0
3317 3470 3471 -6891 0
3327 3470 3471 -6891 0
3317 3327 -6892 0
3317 3470 -6892 0
3317 3471 -6892 0
3327 3470 -6892 0
3327 3471 -6892 0
3470 3471 -6892 0
3317 -6893 0
3327 -6893 0
3470 -6893 0
3471 -6893 0
6894 -3356 0
6894 -3472 0
6894 -3473 0
6894 -3380 0
6895 -3356 -3472 0
6895 -3356 -3473 0
6895 -3356 -3380 0
6895 -3472 -3473 0
6895 -3472 -3380 0
6895 -3473 -3380 0
6896 -3356 -3472 -3473 0
6896 -3356 -3472 -3380 0
6896 -3356 -3473 -3380 0
6896 -3472 -3473 -3380 0
6897 -3356 -3472 -3473 -3380 0
3356 3472 3473 3380 -6894 0
3356 3472 3473 -6895 0
3356 3472 3380 -6895 0
3356 3473 3380 -6895 0
3472 3473 3380 -6895 0
3356 3472 -6896 0
3356 3473 -6896 0
3356 3380 -6896 0
3472 3473 -6896 0
3472 3380 -6896 0
3473 3380 -6896 0
3356 -6897 0
3472 -6897 0
3473 -6897 0
3380 -6897 0
-6890 6898 0
-6891 6899 0
-6892 6900 0
-6893 3474 0
-6894 6898 0
-6895 6899 0
-6896 6900 0
-6897 3474 0
-6890 -6894 6899 0
-6890 -6895 6900 0
-6890 -6896 3474 0
-6891 -6894 6900 0
-6891 -6895 3474 0
-6892 -6894 3474 0
6890 6894 -6898 0
6890 6895 -6899 0
6891 6894 -6899 0
6890 6896 -6900 0
6891 6895 -6900 0
6892 6894 -6900 0
6890 6897 -3474 0
6891 6896 -3474 0
6892 6895 -3474 0
6893 6894 -3474 0
3325 6901 0
3475 6901 0
3476 6901 0
3477 6901 0
3382 6901 0
3325 3475 3478 0
3325 3476 3478 0
3325 3477 3478 0
3325 3382 3478 0
3475 3476 3478 0
3475 3477 3478 0
3475 3382 3478 0
3476 3477 3478 0
3476 3382 3478 0
3477 3382 3478 0
-3325 -3477 -3475 -3476 -3382 -6901 0
-3325 -3477 -3475 -3476 -3478 0
-3325 -3475 -3476 -3382 -3478 0
-3325 -3477 -3475 -3382 -3478 0
-3325 -3477 -3476 -3382 -3478 0
-3477 -3475 -3476 -3382 -3478 0
3336 6902 0
3479 6902 0
3480 6902 0
3390 6902 0
3481 6902 0
3336 3479 3482 0
3336 3480 3482 0
3336 3390 3482 0
3336 3481 3482 0
3479 3480 3482 0
3479 3390 3482 0
3479 3481 3482 0
3480 3390 3482 0
3480 3481 3482 0
3390 3481 3482 0
-3479 -3481 -3336 -3480 -3390 -6902 0
-3479 -3336 -3480 -3390 -3482 0
-3479 -3481 -3336 -3480 -3482 0
-3479 -3481 -3336 -3390 -3482 0
-3481 -3336 -3480 -3390 -3482 0
-3479 -3481 -3480 -3390 -3482 0
6903 -3333 0
6903 -3483 0
6903 -3484 0
6903 -3363 0
6904 -3333 -3483 0
6904 -3333 -3484 0
6904 -3333 -3363 0
6904 -3483 -3484 0
6904 -3483 -3363 0
6904 -3484 -3363 0
6905 -3333 -3483 -3484 0
6905 -3333 -3483 -3363 0
6905 -3333 -3484 -3363 0
6905 -3483 -3484 -3363 0
6906 -3333 -3483 -3484 -3363 0
3333 3483 3484 3363 -6903 0
3333 3483 3484 -6904 0
3333 3483 3363 -6904 0
3333 3484 3363 -6904 0
3483 3484 3363 -6904 0
3333 3483 -6905 0
3333 3484 -6905 0
3333 3363 -6905 0
3483 3484 -6905 0
3483 3363 -6905 0
3484 3363 -6905 0
3333 -6906 0
3483 -6906 0
3484 -6906 0
3363 -6906 0
6907 -3485 0
6907 -3388 0
6907 -3486 0
6907 -3487 0
6908 -3485 -3388 0
6908 -3485 -3486 0
6908 -3485 -3487 0
6908 -3388 -3486 0
6908 -3388 -3487 0
6908 -3486 -3487 0
6909 -3485 -3388 -3486 0
6909 -3485 -3388 -3487 0
6909 -3485 -3486 -3487 0
6909 -3388 -3486 -3487 0
6910 -3485 -3388 -3486 -3487 0
3485 3388 3486 3487 -6907 0
3485 3388 3486 -6908 0
3485 3388 3487 -6908 0
3485 3486 3487 -6908 0
3388 3486 3487 -6908 0
3485 3388 -6909 0
3485 3486 -6909 0
3485 3487 -6909 0
3388 3486 -6909 0
3388 3487 -6909 0
3486 3487 -6909 0
3485 -6910 0
3388 -6910 0
3486 -6910 0
3487 -6910 0
-6903 6911 0
-6904 6912 0
-6905 6913 0
-6906 3488 0
-6907 6911 0
-6908 6912 0
-6909 6913 0
-6910 3488 0
-6903 -6907 6912 0
-6903 -6908 6913 0
-6903 -6909 3488 0
-6904 -6907 6913 0
-6904 -6908 3488 0
-6905 -6907 3488 0
6903 6907 -6911 0
6903 6908 -6912 0
6904 6907 -6912 0
6903 6909 -6913 0
6904 6908 -6913 0
6905 6907 -6913 0
6903 6910 -3488 0
6904 6909 -3488 0
6905 6908 -3488 0
6906 6907 -3488 0
6914 -3489 0
6914 -3490 0
6914 -3491 0
6914 -3492 0
6915 -3489 -3490 0
6915 -3489 -3491 0
6915 -3489 -3492 0
6915 -3490 -3491 0
6915 -3490 -3492 0
6915 -3491 -3492 0
6916 -3489 -3490 -3491 0
6916 -3489 -3490 -3492 0
6916 -3489 -3491 -3492 0
6916 -3490 -3491 -3492 0
6917 -3489 -3490 -3491 -3492 0
3489 3490 3491 3492 -6914 0
3489 3490 3491 -6915 0
3489 3490 3492 -6915 0
3489 3491 3492 -6915 0
3490 3491 3492 -6915 0
3489 3490 -6916 0
3489 3491 -6916 0
3489 3492 -6916 0
3490 3491 -6916 0
3490 3492 -6916 0
3491 3492 -6916 0
3489 -6917 0
3490 -6917 0
3491 -6917 0
3492 -6917 0
6918 -3493 0
6918 -3494 0
6918 -3495 0
6918 -3496 0
6919 -3493 -3494 0
6919 -3493 -3495 0
6919 -3493 -3496 0
6919 -3494 -3495 0
6919 -3494 -3496 0
6919 -3495 -3496 0
6920 -3493 -3494 -3495 0
6920 -3493 -3494 -3496 0
6920 -3493 -3495 -3496 0
6920 -3494 -3495 -3496 0
6921 -3493 -3494 -3495 -3496 0
3493 3494 3495 3496 -6918 0
3493 3494 3495 -6919 0
3493 3494 3496 -6919 0
3493 3495 3496 -6919 0
3494 3495 3496 -6919 0
3493 3494 -6920 0
3493 3495 -6920 0
3493 3496 -6920 0
3494 3495 -6920 0
3494 3496 -6920 0
3495 3496 -6920 0
3493 -6921 0
3494 -6921 0
3495 -6921 0
3496 -6921 0
-6914 6922 0
-6915 6923 0
-6916 6924 0
-6917 3497 0
-6918 6922 0
-6919 6923 0
-6920 6924 0
-6921 3497 0
-6914 -6918 6923 0
-6914 -6919 6924 0
-6914 -6920 3497 0
-6915 -6918 6924 0
-6915 -6919 3497 0
-6916 -6918 3497 0
6914 6918 -6922 0
6914 6919 -6923 0
6915 6918 -6923 0
6914 6920 -6924 0
6915 6919 -6924 0
6916 6918 -6924 0
6914 6921 -3497 0
6915 6920 -3497 0
6916 6919 -3497 0
6917 6918 -3497 0
6925 -3498 0
6925 -3499 0
6925 -3353 0
6925 -3500 0
6926 -3498 -3499 0
6926 -3498 -3353 0
6926 -3498 -3500 0
6926 -3499 -3353 0
6926 -3499 -3500 0
6926 -3353 -3500 0
6927 -3498 -3499 -3353 0
6927 -3498 -3499 -3500 0
6927 -3498 -3353 -3500 0
6927 -3499 -3353 -3500 0
6928 -3498 -3499 -3353 -3500 0
3498 3499 3353 3500 -6925 0
3498 3499 3353 -6926 0
3498 3499 3500 -6926 0
3498 3353 3500 -6926 0
3499 3353 3500 -6926 0
3498 3499 -6927 0
3498 3353 -6927 0
3498 3500 -6927 0
3499 3353 -6927 0
3499 3500 -6927 0
3353 3500 -6927 0
3498 -6928 0
3499 -6928 0
3353 -6928 0
3500 -6928 0
6929 -3384 0
6929 -3501 0
6929 -3502 0
6929 -3408 0
6930 -3384 -3501 0
6930 -3384 -3502 0
6930 -3384 -3408 0
6930 -3501 -3502 0
6930 -3501 -3408 0
6930 -3502 -3408 0
6931 -3384 -3501 -3502 0
6931 -3384 -3501 -3408 0
6931 -3384 -3502 -3408 0
6931 -3501 -3502 -3408 0
6932 -3384 -3501 -3502 -3408 0
3384 3501 3502 3408 -6929 0
3384 3501 3502 -6930 0
3384 3501 3408 -6930 0
3384 3502 3408 -6930 0
3501 3502 3408 -6930 0
3384 3501 -6931 0
3384 3502 -6931 0
3384 3408 -6931 0
3501 3502 -6931 0
3501 3408 -6931 0
3502 3408 -6931 0
3384 -6932 0
3501 -6932 0
3502 -6932 0
3408 -6932 0
-6925 6933 0
-6926 6934 0
-6927 6935 0
-6928 3503 0
-6929 6933 0
-6930 6934 0
-6931 6935 0
-6932 3503 0
-6925 -6929 6934 0
-6925 -6930 6935 0
-6925 -6931 3503 0
-6926 -6929 6935 0
-6926 -6930 3503 0
-6927 -6929 3503 0
6925 6929 -6933 0
6925 6930 -6934 0
6926 6929 -6934 0
6925 6931 -6935 0
6926 6930 -6935 0
6927 6929 -6935 0
6925 6932 -3503 0
6926 6931 -3503 0
6927 6930 -3503 0
6928 6929 -3503 0
3504 6936 0
3355 6936 0
3505 6936 0
3506 6936 0
3410 6936 0
3504 3355 3507 0
3504 3505 3507 0
3504 3506 3507 0
3504 3410 3507 0
3355 3505 3507 0
3355 3506 3507 0
3355 3410 3507 0
3505 3506 3507 0
3505 3410 3507 0
3506 3410 3507 0
-3504 -3506 -3355 -3505 -3410 -6936 0
-3504 -3506 -3355 -3505 -3507 0
-3504 -3355 -3505 -3410 -3507 0
-3504 -3506 -3355 -3410 -3507 0
-3504 -3506 -3505 -3410 -3507 0
-3506 -3355 -3505 -3410 -3507 0
3364 6937 0
3508 6937 0
3509 6937 0
3510 6937 0
3417 6937 0
3364 3508 3511 0
3364 3509 3511 0
3364 3510 3511 0
3364 3417 3511 0
3508 3509 3511 0
3508 3510 3511 0
3508 3417 3511 0
3509 3510 3511 0
3509 3417 3511 0
3510 3417 3511 0
-3508 -3417 -3364 -3509 -3510 -6937 0
-3508 -3364 -3509 -3510 -3511 0
-3508 -3417 -3364 -3509 -3511 0
-3508 -3417 -3364 -3510 -3511 0
-3417 -3364 -3509 -3510 -3511 0
-3508 -3417 -3509 -3510 -3511 0
6938 -3361 0
6938 -3512 0
6938 -3513 0
6938 -3391 0
6939 -3361 -3512 0
6939 -3361 -3513 0
6939 -3361 -3391 0
6939 -3512 -3513 0
6939 -3512 -3391 0
6939 -3513 -3391 0
6940 -3361 -3512 -3513 0
6940 -3361 -3512 -3391 0
6940 -3361 -3513 -3391 0
6940 -3512 -3513 -3391 0
6941 -3361 -3512 -3513 -3391 0
3361 3512 3513 3391 -6938 0
3361 3512 3513 -6939 0
3361 3512 3391 -6939 0
3361 3513 3391 -6939 0
3512 3513 3391 -6939 0
3361 3512 -6940 0
3361 3513 -6940 0
3361 3391 -6940 0
3512 3513 -6940 0
3512 3391 -6940 0
3513 3391 -6940 0
3361 -6941 0
3512 -6941 0
3513 -6941 0
3391 -6941 0
6942 -3514 0
6942 -3515 0
6942 -3418 0
6942 -3425 0
6943 -3514 -3515 0
6943 -3514 -3418 0
6943 -3514 -3425 0
6943 -3515 -3418 0
6943 -3515 -3425 0
6943 -3418 -3425 0
6944 -3514 -3515 -3418 0
6944 -3514 -3515 -3425 0
6944 -3514 -3418 -3425 0
6944 -3515 -3418 -3425 0
6945 -3514 -3515 -3418 -3425 0
3514 3515 3418 3425 -6942 0
3514 3515 3418 -6943 0
3514 3515 3425 -6943 0
3514 3418 3425 -6943 0
3515 3418 3425 -6943 0
3514 3515 -6944 0
3514 3418 -6944 0
3514 3425 -6944 0
3515 3418 -6944 0
3515 3425 -6944 0
3418 3425 -6944 0
3514 -6945 0
3515 -6945 0
3418 -6945 0
3425 -6945 0
-6938 6946 0
-6939 6947 0
-6940 6948 0
-6941 3516 0
-6942 6946 0
-6943 6947 0
-6944 6948 0
-6945 3516 0
-6938 -6942 6947 0
-6938 -6943 6948 0
-6938 -6944 3516 0
-6939 -6942 6948 0
-6939 -6943 3516 0
-6940 -6942 3516 0
6938 6942 -6946 0
6938 6943 -6947 0
6939 6942 -6947 0
6938 6944 -6948 0
6939 6943 -6948 0
6940 6942 -6948 0
6938 6945 -3516 0
6939 6944 -3516 0
6940 6943 -3516 0
6941 6942 -3516 0
6949 -3517 0
6949 -3518 0
6949 -3519 0
6949 -3520 0
6950 -3517 -3518 0
6950 -3517 -3519 0
6950 -3517 -3520 0
6950 -3518 -3519 0
6950 -3518 -3520 0
6950 -3519 -3520 0
6951 -3517 -3518 -3519 0
6951 -3517 -3518 -3520 0
6951 -3517 -3519 -3520 0
6951 -3518 -3519 -3520 0
6952 -3517 -3518 -3519 -3520 0
3517 3518 3519 3520 -6949 0
3517 3518 3519 -6950 0
3517 3518 3520 -6950 0
3517 3519 3520 -6950 0
3518 3519 3520 -6950 0
3517 3518 -6951 0
3517 3519 -6951 0
3517 3520 -6951 0
3518 3519 -6951 0
3518 3520 -6951 0
3519 3520 -6951 0
3517 -6952 0
3518 -6952 0
3519 -6952 0
3520 -6952 0
6953 -3521 0
6953 -3416 0
6953 -3426 0
6953 -3433 0
6954 -3521 -3416 0
6954 -3521 -3426 0
6954 -3521 -3433 0
6954 -3416 -3426 0
6954 -3416 -3433 0
6954 -3426 -3433 0
6955 -3521 -3416 -3426 0
6955 -3521 -3416 -3433 0
6955 -3521 -3426 -3433 0
6955 -3416 -3426 -3433 0
6956 -3521 -3416 -3426 -3433 0
3521 3416 3426 3433 -6953 0
3521 3416 3426 -6954 0
3521 3416 3433 -6954 0
3521 3426 3433 -6954 0
3416 3426 3433 -6954 0
3521 3416 -6955 0
3521 3426 -6955 0
3521 3433 -6955 0
3416 3426 -6955 0
3416 3433 -6955 0
3426 3433 -6955 0
3521 -6956 0
3416 -6956 0
3426 -6956 0
3433 -6956 0
-6949 6957 0
-6950 6958 0
-6951 6959 0
-6952 3522 0
-6953 6957 0
-6954 6958 0
-6955 6959 0
-6956 3522 0
-6949 -6953 6958 0
-6949 -6954 6959 0
-6949 -6955 3522 0
-6950 -6953 6959 0
-6950 -6954 3522 0
-6951 -6953 3522 0
6949 6953 -6957 0
6949 6954 -6958 0
6950 6953 -6958 0
6949 6955 -6959 0
6950 6954 -6959 0
6951 6953 -6959 0
6949 6956 -3522 0
6950 6955 -3522 0
6951 6954 -3522 0
6952 6953 -3522 0
6960 -3523 0
6960 -3524 0
6960 -3381 0
6960 -3525 0
6961 -3523 -3524 0
6961 -3523 -3381 0
6961 -3523 -3525 0
6961 -3524 -3381 0
6961 -3524 -3525 0
6961 -3381 -3525 0
6962 -3523 -3524 -3381 0
6962 -3523 -3524 -3525 0
6962 -3523 -3381 -3525 0
6962 -3524 -3381 -3525 0
6963 -3523 -3524 -3381 -3525 0
3523 3524 3381 3525 -6960 0
3523 3524 3381 -6961 0
3523 3524 3525 -6961 0
3523 3381 3525 -6961 0
3524 3381 3525 -6961 0
3523 3524 -6962 0
3523 3381 -6962 0
3523 3525 -6962 0
3524 3381 -6962 0
3524 3525 -6962 0
3381 3525 -6962 0
3523 -6963 0
3524 -6963 0
3381 -6963 0
3525 -6963 0
6964 -3412 0
6964 -3424 0
6964 -3434 0
6964 -3526 0
6965 -3412 -3424 0
6965 -3412 -3434 0
6965 -3412 -3526 0
6965 -3424 -3434 0
6965 -3424 -3526 0
6965 -3434 -3526 0
6966 -3412 -3424 -3434 0
6966 -3412 -3424 -3526 0
6966 -3412 -3434 -3526 0
6966 -3424 -3434 -3526 0
6967 -3412 -3424 -3434 -3526 0
3412 3424 3434 3526 -6964 0
3412 3424 3434 -6965 0
3412 3424 3526 -6965 0
3412 3434 3526 -6965 0
3424 3434 3526 -6965 0
3412 3424 -6966 0
3412 3434 -6966 0
3412 3526 -6966 0
3424 3434 -6966 0
3424 3526 -6966 0
3434 3526 -6966 0
3412 -6967 0
3424 -6967 0
3434 -6967 0
3526 -6967 0
-6960 6968 0
-6961 6969 0
-6962 6970 0
-6963 3527 0
-6964 6968 0
-6965 6969 0
-6966 6970 0
-6967 3527 0
-6960 -6964 6969 0
-6960 -6965 6970 0
-6960 -6966 3527 0
-6961 -6964 6970 0
-6961 -6965 3527 0
-6962 -6964 3527 0
6960 6964 -6968 0
6960 6965 -6969 0
6961 6964 -6969 0
6960 6966 -6970 0
6961 6965 -6970 0
6962 6964 -6970 0
6960 6967 -3527 0
6961 6966 -3527 0
6962 6965 -3527 0
6963 6964 -3527 0
3528 6971 0
3383 6971 0
3529 6971 0
3432 6971 0
3530 6971 0
3528 3383 3531 0
3528 3529 3531 0
3528 3432 3531 0
3528 3530 3531 0
3383 3529 3531 0
3383 3432 3531 0
3383 3530 3531 0
3529 3432 3531 0
3529 3530 3531 0
3432 3530 3531 0
-3528 -3432 -3383 -3529 -3530 -6971 0
-3528 -3432 -3383 -3529 -3531 0
-3528 -3383 -3529 -3530 -3531 0
-3528 -3432 -3383 -3530 -3531 0
-3528 -3432 -3529 -3530 -3531 0
-3432 -3383 -3529 -3530 -3531 0
3389 6972 0
3534 6972 0
3535 6972 0
3536 6972 0
3428 6972 0
3389 3534 3537 0
3389 3535 3537 0
3389 3536 3537 0
3389 3428 3537 0
3534 3535 3537 0
3534 3536 3537 0
3534 3428 3537 0
3535 3536 3537 0
3535 3428 3537 0
3536 3428 3537 0
-3535 -3389 -3534 -3536 -3428 -6972 0
-3535 -3389 -3534 -3536 -3537 0
-3535 -3389 -3534 -3428 -3537 0
-3389 -3534 -3536 -3428 -3537 0
-3535 -3389 -3536 -3428 -3537 0
-3535 -3534 -3536 -3428 -3537 0
3538 6973 0
3539 6973 0
3540 6973 0
3419 6973 0
3436 6973 0
3538 3539 3541 0
3538 3540 3541 0
3538 3419 3541 0
3538 3436 3541 0
3539 3540 3541 0
3539 3419 3541 0
3539 3436 3541 0
3540 3419 3541 0
3540 3436 3541 0
3419 3436 3541 0
-3540 -3538 -3539 -3419 -3436 -6973 0
-3540 -3538 -3539 -3419 -3541 0
-3540 -3538 -3539 -3436 -3541 0
-3538 -3539 -3419 -3436 -3541 0
-3540 -3538 -3419 -3436 -3541 0
-3540 -3539 -3419 -3436 -3541 0
3542 6974 0
3543 6974 0
3409 6974 0
3427 6974 0
3544 6974 0
3542 3543 3545 0
3542 3409 3545 0
3542 3427 3545 0
3542 3544 3545 0
3543 3409 3545 0
3543 3427 3545 0
3543 3544 3545 0
3409 3427 3545 0
3409 3544 3545 0
3427 3544 3545 0
-3409 -3542 -3543 -3427 -3544 -6974 0
-3409 -3542 -3543 -3427 -3545 0
-3409 -3542 -3543 -3544 -3545 0
-3542 -3543 -3427 -3544 -3545 0
-3409 -3542 -3427 -3544 -3545 0
-3409 -3543 -3427 -3544 -3545 0
1 7 8 9 10 6975 0
11 17 18 19 20 6975 0
21 27 28 29 30 6975 0
1 7 8 9 10 11 17 18 19 20 6976 0
1 7 8 9 10 21 27 28 29 30 6976 0
11 17 18 19 20 21 27 28 29 30 6976 0
1 7 8 9 10 11 17 18 19 20 21 27 28 29 30 6977 0
-21 6978 0
-27 6978 0
-28 6978 0
-29 6978 0
-30 6978 0
21 27 28 29 30 -6978 0
-1 -11 -6975 -6978 0
-7 -11 -6975 -6978 0
-8 -11 -6975 -6978 0
-9 -11 -6975 -6978 0
-10 -11 -6975 -6978 0
-17 -1 -6975 -6978 0
-7 -17 -6975 -6978 0
-8 -17 -6975 -6978 0
-9 -17 -6975 -6978 0
-10 -17 -6975 -6978 0
-18 -1 -6975 -6978 0
-18 -7 -6975 -6978 0
-8 -18 -6975 -6978 0
-9 -18 -6975 -6978 0
-10 -18 -6975 -6978 0
-19 -1 -6975 -6978 0
-19 -7 -6975 -6978 0
-19 -8 -6975 -6978 0
-9 -19 -6975 -6978 0
-10 -19 -6975 -6978 0
-20 -1 -6975 -6978 0
-20 -7 -6975 -6978 0
-20 -8 -6975 -6978 0
-9 -20 -6975 -6978 0
-10 -20 -6975 -6978 0
-6976 -1 -11 0
-6976 -7 -11 0
-6976 -8 -11 0
-6976 -9 -11 0
-6976 -10 -11 0
-6976 -1 -17 0
-6976 -7 -17 0
-6976 -8 -17 0
-6976 -9 -17 0
-6976 -10 -17 0
-6976 -1 -18 0
-6976 -7 -18 0
-6976 -8 -18 0
-6976 -9 -18 0
-6976 -10 -18 0
-6976 -1 -19 0
-6976 -7 -19 0
-6976 -8 -19 0
-6976 -9 -19 0
-6976 -10 -19 0
-6976 -1 -20 0
-6976 -7 -20 0
-6976 -8 -20 0
-6976 -9 -20 0
-6976 -10 -20 0
-6976 -1 -21 0
-6976 -7 -21 0
-6976 -8 -21 0
-6976 -9 -21 0
-6976 -10 -21 0
-6976 -1 -27 0
-6976 -7 -27 0
-6976 -8 -27 0
-6976 -9 -27 0
-6976 -10 -27 0
-6976 -1 -28 0
-6976 -7 -28 0
-6976 -8 -28 0
-6976 -9 -28 0
-6976 -10 -28 0
-6976 -1 -29 0
-6976 -7 -29 0
-6976 -8 -29 0
-6976 -9 -29 0
-6976 -10 -29 0
-6976 -1 -30 0
-6976 -7 -30 0
-6976 -8 -30 0
-6976 -9 -30 0
-6976 -10 -30 0
-6976 -11 -21 0
-6976 -17 -21 0
-6976 -18 -21 0
-6976 -19 -21 0
-6976 -20 -21 0
-6976 -11 -27 0
-6976 -17 -27 0
-6976 -18 -27 0
-6976 -19 -27 0
-6976 -20 -27 0
-6976 -11 -28 0
-6976 -17 -28 0
-6976 -18 -28 0
-6976 -19 -28 0
-6976 -20 -28 0
-6976 -11 -29 0
-6976 -17 -29 0
-6976 -18 -29 0
-6976 -19 -29 0
-6976 -20 -29 0
-6976 -11 -30 0
-6976 -17 -30 0
-6976 -18 -30 0
-6976 -19 -30 0
-6976 -20 -30 0
-6977 -1 0
-6977 -7 0
-6977 -8 0
-6977 -9 0
-6977 -10 0
-6977 -11 0
-6977 -17 0
-6977 -18 0
-6977 -19 0
-6977 -20 0
-6977 -21 0
-6977 -27 0
-6977 -28 0
-6977 -29 0
-6977 -30 0
31 37 38 39 40 6979 0
41 47 48 49 50 6979 0
51 57 58 59 60 6979 0
31 37 38 39 40 41 47 48 49 50 6980 0
31 37 38 39 40 51 57 58 59 60 6980 0
41 47 48 49 50 51 57 58 59 60 6980 0
31 37 38 39 40 41 47 48 49 50 51 57 58 59 60 6981 0
-51 6982 0
-57 6982 0
-58 6982 0
-59 6982 0
-60 6982 0
51 57 58 59 60 -6982 0
-31 -41 -6979 -6982 0
-37 -41 -6979 -6982 0
-38 -41 -6979 -6982 0
-39 -41 -6979 -6982 0
-40 -41 -6979 -6982 0
-47 -31 -6979 -6982 0
-37 -47 -6979 -6982 0
-38 -47 -6979 -6982 0
-39 -47 -6979 -6982 0
-40 -47 -6979 -6982 0
-48 -31 -6979 -6982 0
-48 -37 -6979 -6982 0
-38 -48 -6979 -6982 0
-39 -48 -6979 -6982 0
-40 -48 -6979 -6982 0
-49 -31 -6979 -6982 0
-49 -37 -6979 -6982 0
-49 -38 -6979 -6982 0
-39 -49 -6979 -6982 0
-40 -49 -6979 -6982 0
-50 -31 -6979 -6982 0
-50 -37 -6979 -6982 0
-50 -38 -6979 -6982 0
-39 -50 -6979 -6982 0
-40 -50 -6979 -6982 0
-6980 -31 -41 0
-6980 -37 -41 0
-6980 -38 -41 0
-6980 -39 -41 0
-6980 -40 -41 0
-6980 -31 -47 0
-6980 -37 -47 0
-6980 -38 -47 0
-6980 -39 -47 0
-6980 -40 -47 0
-6980 -31 -48 0
-6980 -37 -48 0
-6980 -38 -48 0
-6980 -39 -48 0
-6980 -40 -48 0
-6980 -31 -49 0
-6980 -37 -49 0
-6980 -38 -49 0
-6980 -39 -49 0
-6980 -40 -49 0
-6980 -31 -50 0
-6980 -37 -50 0
-6980 -38 -50 0
-6980 -39 -50 0
-6980 -40 -50 0
-6980 -31 -51 0
-6980 -37 -51 0
-6980 -38 -51 0
-6980 -39 -51 0
-6980 -40 -51 0
-6980 -31 -57 0
-6980 -37 -57 0
-6980 -38 -57 0
-6980 -39 -57 0
-6980 -40 -57 0
-6980 -31 -58 0
-6980 -37 -58 0
-6980 -38 -58 0
-6980 -39 -58 0
-6980 -40 -58 0
-6980 -31 -59 0
-6980 -37 -59 0
-6980 -38 -59 0
-6980 -39 -59 0
-6980 -40 -59 0
-6980 -31 -60 0
-6980 -37 -60 0
-6980 -38 -60 0
-6980 -39 -60 0
-6980 -40 -60 0
-6980 -41 -51 0
-6980 -47 -51 0
-6980 -48 -51 0
-6980 -49 -51 0
-6980 -50 -51 0
-6980 -41 -57 0
-6980 -47 -57 0
-6980 -48 -57 0
-6980 -49 -57 0
-6980 -50 -57 0
-6980 -41 -58 0
-6980 -47 -58 0
-6980 -48 -58 0
-6980 -49 -58 0
-6980 -50 -58 0
-6980 -41 -59 0
-6980 -47 -59 0
-6980 -48 -59 0
-6980 -49 -59 0
-6980 -50 -59 0
-6980 -41 -60 0
-6980 -47 -60 0
-6980 -48 -60 0
-6980 -49 -60 0
-6980 -50 -60 0
-6981 -31 0
-6981 -37 0
-6981 -38 0
-6981 -39 0
-6981 -40 0
-6981 -41 0
-6981 -47 0
-6981 -48 0
-6981 -49 0
-6981 -50 0
-6981 -51 0
-6981 -57 0
-6981 -58 0
-6981 -59 0
-6981 -60 0
-6975 6983 0
-6976 6984 0
-6977 6985 0
-6979 6983 0
-6980 6984 0
-6981 6985 0
-6975 -6979 6984 0
-6975 -6980 6985 0
-6975 -6981 6986 0
-6976 -6979 6985 0
-6976 -6980 6986 0
-6976 -6981 6987 0
-6977 -6979 6986 0
-6977 -6980 6987 0
6975 6979 -6983 0
6975 6980 -6984 0
6976 6979 -6984 0
6975 6981 -6985 0
6976 6980 -6985 0
6977 6979 -6985 0
6979 -6986 0
6975 -6986 0
6976 6981 -6986 0
6977 6980 -6986 0
6980 -6987 0
6976 -6987 0
6977 6981 -6987 0
61 67 68 69 70 6988 0
71 77 78 79 80 6988 0
81 87 88 89 90 6988 0
61 67 68 69 70 71 77 78 79 80 6989 0
61 67 68 69 70 81 87 88 89 90 6989 0
71 77 78 79 80 81 87 88 89 90 6989 0
61 67 68 69 70 71 77 78 79 80 81 87 88 89 90 6990 0
-81 6991 0
-87 6991 0
-88 6991 0
-89 6991 0
-90 6991 0
81 87 88 89 90 -6991 0
-61 -71 -6988 -6991 0
-67 -71 -6988 -6991 0
-68 -71 -6988 -6991 0
-69 -71 -6988 -6991 0
-70 -71 -6988 -6991 0
-77 -61 -6988 -6991 0
-67 -77 -6988 -6991 0
-68 -77 -6988 -6991 0
-69 -77 -6988 -6991 0
-70 -77 -6988 -6991 0
-78 -61 -6988 -6991 0
-78 -67 -6988 -6991 0
-68 -78 -6988 -6991 0
-69 -78 -6988 -6991 0
-70 -78 -6988 -6991 0
-79 -61 -6988 -6991 0
-79 -67 -6988 -6991 0
-79 -68 -6988 -6991 0
-69 -79 -6988 -6991 0
-70 -79 -6988 -6991 0
-80 -61 -6988 -6991 0
-80 -67 -6988 -6991 0
-80 -68 -6988 -6991 0
-69 -80 -6988 -6991 0
-70 -80 -6988 -6991 0
-6989 -61 -71 0
-6989 -67 -71 0
-6989 -68 -71 0
-6989 -69 -71 0
-6989 -70 -71 0
-6989 -61 -77 0
-6989 -67 -77 0
-6989 -68 -77 0
-6989 -69 -77 0
-6989 -70 -77 0
-6989 -61 -78 0
-6989 -67 -78 0
-6989 -68 -78 0
-6989 -69 -78 0
-6989 -70 -78 0
-6989 -61 -79 0
-6989 -67 -79 0
-6989 -68 -79 0
-6989 -69 -79 0
-6989 -70 -79 0
-6989 -61 -80 0
-6989 -67 -80 0
-6989 -68 -80 0
-6989 -69 -80 0
-6989 -70 -80 0
-6989 -61 -81 0
-6989 -67 -81 0
-6989 -68 -81 0
-6989 -69 -81 0
-6989 -70 -81 0
-6989 -61 -87 0
-6989 -67 -87 0
-6989 -68 -87 0
-6989 -69 -87 0
-6989 -70 -87 0
-6989 -61 -88 0
-6989 -67 -88 0
-6989 -68 -88 0
-6989 -69 -88 0
-6989 -70 -88 0
-6989 -61 -89 0
-6989 -67 -89 0
-6989 -68 -89 0
-6989 -69 -89 0
-6989 -70 -89 0
-6989 -61 -90 0
-6989 -67 -90 0
-6989 -68 -90 0
-6989 -69 -90 0
-6989 -70 -90 0
-6989 -71 -81 0
-6989 -77 -81 0
-6989 -78 -81 0
-6989 -79 -81 0
-6989 -80 -81 0
-6989 -71 -87 0
-6989 -77 -87 0
-6989 -78 -87 0
-6989 -79 -87 0
-6989 -80 -87 0
-6989 -71 -88 0
-6989 -77 -88 0
-6989 -78 -88 0
-6989 -79 -88 0
-6989 -80 -88 0
-6989 -71 -89 0
-6989 -77 -89 0
-6989 -78 -89 0
-6989 -79 -89 0
-6989 -80 -89 0
-6989 -71 -90 0
-6989 -77 -90 0
-6989 -78 -90 0
-6989 -79 -90 0
-6989 -80 -90 0
-6990 -61 0
-6990 -67 0
-6990 -68 0
-6990 -69 0
-6990 -70 0
-6990 -71 0
-6990 -77 0
-6990 -78 0
-6990 -79 0
-6990 -80 0
-6990 -81 0
-6990 -87 0
-6990 -88 0
-6990 -89 0
-6990 -90 0
91 97 98 99 100 6992 0
101 107 108 109 110 6992 0
111 117 118 119 120 6992 0
91 97 98 99 100 101 107 108 109 110 6993 0
91 97 98 99 100 111 117 118 119 120 6993 0
101 107 108 109 110 111 117 118 119 120 6993 0
91 97 98 99 100 101 107 108 109 110 111 117 118 119 120 6994 0
-111 6995 0
-117 6995 0
-118 6995 0
-119 6995 0
-120 6995 0
111 117 118 119 120 -6995 0
-91 -101 -6992 -6995 0
-97 -101 -6992 -6995 0
-98 -101 -6992 -6995 0
-99 -101 -6992 -6995 0
-100 -101 -6992 -6995 0
-107 -91 -6992 -6995 0
-97 -107 -6992 -6995 0
-98 -107 -6992 -6995 0
-99 -107 -6992 -6995 0
-100 -107 -6992 -6995 0
-108 -91 -6992 -6995 0
-108 -97 -6992 -6995 0
-98 -108 -6992 -6995 0
-99 -108 -6992 -6995 0
-100 -108 -6992 -6995 0
-109 -91 -6992 -6995 0
-109 -97 -6992 -6995 0
-109 -98 -6992 -6995 0
-99 -109 -6992 -6995 0
-100 -109 -6992 -6995 0
-110 -91 -6992 -6995 0
-110 -97 -6992 -6995 0
-110 -98 -6992 -6995 0
-99 -110 -6992 -6995 0
-100 -110 -6992 -6995 0
-6993 -91 -101 0
-6993 -97 -101 0
-6993 -98 -101 0
-6993 -99 -101 0
-6993 -100 -101 0
-6993 -91 -107 0
-6993 -97 -107 0
-6993 -98 -107 0
-6993 -99 -107 0
-6993 -100 -107 0
-6993 -91 -108 0
-6993 -97 -108 0
-6993 -98 -108 0
-6993 -99 -108 0
-6993 -100 -108 0
-6993 -91 -109 0
-6993 -97 -109 0
-6993 -98 -109 0
-6993 -99 -109 0
-6993 -100 -109 0
-6993 -91 -110 0
-6993 -97 -110 0
-6993 -98 -110 0
-6993 -99 -110 0
-6993 -100 -110 0
-6993 -91 -111 0
-6993 -97 -111 0
-6993 -98 -111 0
-6993 -99 -111 0
-6993 -100 -111 0
-6993 -91 -117 0
-6993 -97 -117 0
-6993 -98 -117 0
-6993 -99 -117 0
-6993 -100 -117 0
-6993 -91 -118 0
-6993 -97 -118 0
-6993 -98 -118 0
-6993 -99 -118 0
-6993 -100 -118 0
-6993 -91 -119 0
-6993 -97 -119 0
-6993 -98 -119 0
-6993 -99 -119 0
-6993 -100 -119 0
-6993 -91 -120 0
-6993 -97 -120 0
-6993 -98 -120 0
-6993 -99 -120 0
-6993 -100 -120 0
-6993 -101 -111 0
-6993 -107 -111 0
-6993 -108 -111 0
-6993 -109 -111 0
-6993 -110 -111 0
-6993 -101 -117 0
-6993 -107 -117 0
-6993 -108 -117 0
-6993 -109 -117 0
-6993 -110 -117 0
-6993 -101 -118 0
-6993 -107 -118 0
-6993 -108 -118 0
-6993 -109 -118 0
-6993 -110 -118 0
-6993 -101 -119 0
-6993 -107 -119 0
-6993 -108 -119 0
-6993 -109 -119 0
-6993 -110 -119 0
-6993 -101 -120 0
-6993 -107 -120 0
-6993 -108 -120 0
-6993 -109 -120 0
-6993 -110 -120 0
-6994 -91 0
-6994 -97 0
-6994 -98 0
-6994 -99 0
-6994 -100 0
-6994 -101 0
-6994 -107 0
-6994 -108 0
-6994 -109 0
-6994 -110 0
-6994 -111 0
-6994 -117 0
-6994 -118 0
-6994 -119 0
-6994 -120 0
-6988 6996 0
-6989 6997 0
-6990 6998 0
-6992 6996 0
-6993 6997 0
-6994 6998 0
-6988 -6992 6997 0
-6988 -6993 6998 0
-6988 -6994 6999 0
-6989 -6992 6998 0
-6989 -6993 6999 0
-6989 -6994 7000 0
-6990 -6992 6999 0
-6990 -6993 7000 0
6988 6992 -6996 0
6988 6993 -6997 0
6989 6992 -6997 0
6988 6994 -6998 0
6989 6993 -6998 0
6990 6992 -6998 0
6992 -6999 0
6988 -6999 0
6989 6994 -6999 0
6990 6993 -6999 0
6993 -7000 0
6989 -7000 0
6990 6994 -7000 0
-6983 7001 0
-6984 7002 0
-6985 7003 0
-6986 7004 0
-6987 7005 0
-6996 7001 0
-6997 7002 0
-6998 7003 0
-6999 7004 0
-7000 7005 0
-6983 -6996 7002 0
-6983 -6997 7003 0
-6983 -6998 7004 0
-6983 -6999 7005 0
-6984 -6996 7003 0
-6984 -6997 7004 0
-6984 -6998 7005 0
-6985 -6996 7004 0
-6985 -6997 7005 0
-6986 -6996 7005 0
6983 6996 -7001 0
6983 6997 -7002 0
6984 6996 -7002 0
6983 6998 -7003 0
6984 6997 -7003 0
6985 6996 -7003 0
6983 6999 -7004 0
6984 6998 -7004 0
6985 6997 -7004 0
6986 6996 -7004 0
6983 7000 -7005 0
6984 6999 -7005 0
6985 6998 -7005 0
6986 6997 -7005 0
6987 6996 -7005 0
121 127 128 129 130 7006 0
131 137 138 139 140 7006 0
141 147 148 149 150 7006 0
121 127 128 129 130 131 137 138 139 140 7007 0
121 127 128 129 130 141 147 148 149 150 7007 0
131 137 138 139 140 141 147 148 149 150 7007 0
121 127 128 129 130 131 137 138 139 140 141 147 148 149 150 7008 0
-141 7009 0
-147 7009 0
-148 7009 0
-149 7009 0
-150 7009 0
141 147 148 149 150 -7009 0
-121 -131 -7006 -7009 0
-127 -131 -7006 -7009 0
-128 -131 -7006 -7009 0
-129 -131 -7006 -7009 0
-130 -131 -7006 -7009 0
-137 -121 -7006 -7009 0
-127 -137 -7006 -7009 0
-128 -137 -7006 -7009 0
-129 -137 -7006 -7009 0
-130 -137 -7006 -7009 0
-138 -121 -7006 -7009 0
-138 -127 -7006 -7009 0
-128 -138 -7006 -7009 0
-129 -138 -7006 -7009 0
-130 -138 -7006 -7009 0
-139 -121 -7006 -7009 0
-139 -127 -7006 -7009 0
-139 -128 -7006 -7009 0
-129 -139 -7006 -7009 0
-130 -139 -7006 -7009 0
-140 -121 -7006 -7009 0
-140 -127 -7006 -7009 0
-140 -128 -7006 -7009 0
-129 -140 -7006 -7009 0
-130 -140 -7006 -7009 0
-7007 -121 -131 0
-7007 -127 -131 0
-7007 -128 -131 0
-7007 -129 -131 0
-7007 -130 -131 0
-7007 -121 -137 0
-7007 -127 -137 0
-7007 -128 -137 0
-7007 -129 -137 0
-7007 -130 -137 0
-7007 -121 -138 0
-7007 -127 -138 0
-7007 -128 -138 0
-7007 -129 -138 0
-7007 -130 -138 0
-7007 -121 -139 0
-7007 -127 -139 0
-7007 -128 -139 0
-7007 -129 -139 0
-7007 -130 -139 0
-7007 -121 -140 0
-7007 -127 -140 0
-7007 -128 -140 0
-7007 -129 -140 0
-7007 -130 -140 0
-7007 -121 -141 0
-7007 -127 -141 0
-7007 -128 -141 0
-7007 -129 -141 0
-7007 -130 -141 0
-7007 -121 -147 0
-7007 -127 -147 0
-7007 -128 -147 0
-7007 -129 -147 0
-7007 -130 -147 0
-7007 -121 -148 0
-7007 -127 -148 0
-7007 -128 -148 0
-7007 -129 -148 0
-7007 -130 -148 0
-7007 -121 -149 0
-7007 -127 -149 0
-7007 -128 -149 0
-7007 -129 -149 0
-7007 -130 -149 0
-7007 -121 -150 0
-7007 -127 -150 0
-7007 -128 -150 0
-7007 -129 -150 0
-7007 -130 -150 0
-7007 -131 -141 0
-7007 -137 -141 0
-7007 -138 -141 0
-7007 -139 -141 0
-7007 -140 -141 0
-7007 -131 -147 0
-7007 -137 -147 0
-7007 -138 -147 0
-7007 -139 -147 0
-7007 -140 -147 0
-7007 -131 -148 0
-7007 -137 -148 0
-7007 -138 -148 0
-7007 -139 -148 0
-7007 -140 -148 0
-7007 -131 -149 0
-7007 -137 -149 0
-7007 -138 -149 0
-7007 -139 -149 0
-7007 -140 -149 0
-7007 -131 -150 0
-7007 -137 -150 0
-7007 -138 -150 0
-7007 -139 -150 0
-7007 -140 -150 0
-7008 -121 0
-7008 -127 0
-7008 -128 0
-7008 -129 0
-7008 -130 0
-7008 -131 0
-7008 -137 0
-7008 -138 0
-7008 -139 0
-7008 -140 0
-7008 -141 0
-7008 -147 0
-7008 -148 0
-7008 -149 0
-7008 -150 0
151 157 158 159 160 7010 0
161 167 168 169 170 7010 0
171 177 178 179 180 7010 0
151 157 158 159 160 161 167 168 169 170 7011 0
151 157 158 159 160 171 177 178 179 180 7011 0
161 167 168 169 170 171 177 178 179 180 7011 0
151 157 158 159 160 161 167 168 169 170 171 177 178 179 180 7012 0
-171 7013 0
-177 7013 0
-178 7013 0
-179 7013 0
-180 7013 0
171 177 178 179 180 -7013 0
-151 -161 -7010 -7013 0
-157 -161 -7010 -7013 0
-158 -161 -7010 -7013 0
-159 -161 -7010 -7013 0
-160 -161 -7010 -7013 0
-167 -151 -7010 -7013 0
-157 -167 -7010 -7013 0
-158 -167 -7010 -7013 0
-159 -167 -7010 -7013 0
-160 -167 -7010 -7013 0
-168 -151 -7010 -7013 0
-168 -157 -7010 -7013 0
-158 -168 -7010 -7013 0
-159 -168 -7010 -7013 0
-160 -168 -7010 -7013 0
-169 -151 -7010 -7013 0
-169 -157 -7010 -7013 0
-169 -158 -7010 -7013 0
-159 -169 -7010 -7013 0
-160 -169 -7010 -7013 0
-170 -151 -7010 -7013 0
-170 -157 -7010 -7013 0
-170 -158 -7010 -7013 0
-159 -170 -7010 -7013 0
-160 -170 -7010 -7013 0
-7011 -151 -161 0
-7011 -157 -161 0
-7011 -158 -161 0
-7011 -159 -161 0
-7011 -160 -161 0
-7011 -151 -167 0
-7011 -157 -167 0
-7011 -158 -167 0
-7011 -159 -167 0
-7011 -160 -167 0
-7011 -151 -168 0
-7011 -157 -168 0
-7011 -158 -168 0
-7011 -159 -168 0
-7011 -160 -168 0
-7011 -151 -169 0
-7011 -157 -169 0
-7011 -158 -169 0
-7011 -159 -169 0
-7011 -160 -169 0
-7011 -151 -170 0
-7011 -157 -170 0
-7011 -158 -170 0
-7011 -159 -170 0
-7011 -160 -170 0
-7011 -151 -171 0
-7011 -157 -171 0
-7011 -158 -171 0
-7011 -159 -171 0
-7011 -160 -171 0
-7011 -151 -177 0
-7011 -157 -177 0
-7011 -158 -177 0
-7011 -159 -177 0
-7011 -160 -177 0
-7011 -151 -178 0
-7011 -157 -178 0
-7011 -158 -178 0
-7011 -159 -178 0
-7011 -160 -178 0
-7011 -151 -179 0
-7011 -157 -179 0
-7011 -158 -179 0
-7011 -159 -179 0
-7011 -160 -179 0
-7011 -151 -180 0
-7011 -157 -180 0
-7011 -158 -180 0
-7011 -159 -180 0
-7011 -160 -180 0
-7011 -161 -171 0
-7011 -167 -171 0
-7011 -168 -171 0
-7011 -169 -171 0
-7011 -170 -171 0
-7011 -161 -177 0
-7011 -167 -177 0
-7011 -168 -177 0
-7011 -169 -177 0
-7011 -170 -177 0
-7011 -161 -178 0
-7011 -167 -178 0
-7011 -168 -178 0
-7011 -169 -178 0
-7011 -170 -178 0
-7011 -161 -179 0
-7011 -167 -179 0
-7011 -168 -179 0
-7011 -169 -179 0
-7011 -170 -179 0
-7011 -161 -180 0
-7011 -167 -180 0
-7011 -168 -180 0
-7011 -169 -180 0
-7011 -170 -180 0
-7012 -151 0
-7012 -157 0
-7012 -158 0
-7012 -159 0
-7012 -160 0
-7012 -161 0
-7012 -167 0
-7012 -168 0
-7012 -169 0
-7012 -170 0
-7012 -171 0
-7012 -177 0
-7012 -178 0
-7012 -179 0
-7012 -180 0
-7006 7014 0
-7007 7015 0
-7008 7016 0
-7010 7014 0
-7011 7015 0
-7012 7016 0
-7006 -7010 7015 0
-7006 -7011 7016 0
-7006 -7012 7017 0
-7007 -7010 7016 0
-7007 -7011 7017 0
-7007 -7012 7018 0
-7008 -7010 7017 0
-7008 -7011 7018 0
7006 7010 -7014 0
7006 7011 -7015 0
7007 7010 -7015 0
7006 7012 -7016 0
7007 7011 -7016 0
7008 7010 -7016 0
7010 -7017 0
7006 -7017 0
7007 7012 -7017 0
7008 7011 -7017 0
7011 -7018 0
7007 -7018 0
7008 7012 -7018 0
181 187 188 189 190 7019 0
191 197 198 199 200 7019 0
201 207 208 209 210 7019 0
181 187 188 189 190 191 197 198 199 200 7020 0
181 187 188 189 190 201 207 208 209 210 7020 0
191 197 198 199 200 201 207 208 209 210 7020 0
181 187 188 189 190 191 197 198 199 200 201 207 208 209 210 7021 0
-201 7022 0
-207 7022 0
-208 7022 0
-209 7022 0
-210 7022 0
201 207 208 209 210 -7022 0
-181 -191 -7019 -7022 0
-187 -191 -7019 -7022 0
-188 -191 -7019 -7022 0
-189 -191 -7019 -7022 0
-190 -191 -7019 -7022 0
-197 -181 -7019 -7022 0
-187 -197 -7019 -7022 0
-188 -197 -7019 -7022 0
-189 -197 -7019 -7022 0
-190 -197 -7019 -7022 0
-198 -181 -7019 -7022 0
-198 -187 -7019 -7022 0
-188 -198 -7019 -7022 0
-189 -198 -7019 -7022 0
-190 -198 -7019 -7022 0
-199 -181 -7019 -7022 0
-199 -187 -7019 -7022 0
-199 -188 -7019 -7022 0
-189 -199 -7019 -7022 0
-190 -199 -7019 -7022 0
-200 -181 -7019 -7022 0
-200 -187 -7019 -7022 0
-200 -188 -7019 -7022 0
-189 -200 -7019 -7022 0
-190 -200 -7019 -7022 0
-7020 -181 -191 0
-7020 -187 -191 0
-7020 -188 -191 0
-7020 -189 -191 0
-7020 -190 -191 0
-7020 -181 -197 0
-7020 -187 -197 0
-7020 -188 -197 0
-7020 -189 -197 0
-7020 -190 -197 0
-7020 -181 -198 0
-7020 -187 -198 0
-7020 -188 -198 0
-7020 -189 -198 0
-7020 -190 -198 0
-7020 -181 -199 0
-7020 -187 -199 0
-7020 -188 -199 0
-7020 -189 -199 0
-7020 -190 -199 0
-7020 -181 -200 0
-7020 -187 -200 0
-7020 -188 -200 0
-7020 -189 -200 0
-7020 -190 -200 0
-7020 -181 -201 0
-7020 -187 -201 0
-7020 -188 -201 0
-7020 -189 -201 0
-7020 -190 -201 0
-7020 -181 -207 0
-7020 -187 -207 0
-7020 -188 -207 0
-7020 -189 -207 0
-7020 -190 -207 0
-7020 -181 -208 0
-7020 -187 -208 0
-7020 -188 -208 0
-7020 -189 -208 0
-7020 -190 -208 0
-7020 -181 -209 0
-7020 -187 -209 0
-7020 -188 -209 0
-7020 -189 -209 0
-7020 -190 -209 0
-7020 -181 -210 0
-7020 -187 -210 0
-7020 -188 -210 0
-7020 -189 -210 0
-7020 -190 -210 0
-7020 -191 -201 0
-7020 -197 -201 0
-7020 -198 -201 0
-7020 -199 -201 0
-7020 -200 -201 0
-7020 -191 -207 0
-7020 -197 -207 0
-7020 -198 -207 0
-7020 -199 -207 0
-7020 -200 -207 0
-7020 -191 -208 0
-7020 -197 -208 0
-7020 -198 -208 0
-7020 -199 -208 0
-7020 -200 -208 0
-7020 -191 -209 0
-7020 -197 -209 0
-7020 -198 -209 0
-7020 -199 -209 0
-7020 -200 -209 0
-7020 -191 -210 0
-7020 -197 -210 0
-7020 -198 -210 0
-7020 -199 -210 0
-7020 -200 -210 0
-7021 -181 0
-7021 -187 0
-7021 -188 0
-7021 -189 0
-7021 -190 0
-7021 -191 0
-7021 -197 0
-7021 -198 0
-7021 -199 0
-7021 -200 0
-7021 -201 0
-7021 -207 0
-7021 -208 0
-7021 -209 0
-7021 -210 0
211 217 218 219 220 7023 0
221 227 228 229 230 7023 0
231 237 238 239 240 7023 0
241 247 248 249 250 7023 0
211 217 218 219 220 221 227 228 229 230 7024 0
211 217 218 219 220 231 237 238 239 240 7024 0
211 217 218 219 220 241 247 248 249 250 7024 0
221 227 228 229 230 231 237 238 239 240 7024 0
221 227 228 229 230 241 247 248 249 250 7024 0
231 237 238 239 240 241 247 248 249 250 7024 0
211 217 218 219 220 221 227 228 229 230 231 237 238 239 240 7025 0
211 217 218 219 220 221 227 228 229 230 241 247 248 249 250 7025 0
211 217 218 219 220 231 237 238 239 240 241 247 248 249 250 7025 0
221 227 228 229 230 231 237 238 239 240 241 247 248 249 250 7025 0
211 217 218 219 220 221 227 228 229 230 231 237 238 239 240 241 247 248 249 250 7026 0
-241 7027 0
-247 7027 0
-248 7027 0
-249 7027 0
-250 7027 0
241 247 248 249 250 -7027 0
-231 7028 0
-237 7028 0
-238 7028 0
-239 7028 0
-240 7028 0
231 237 238 239 240 -7028 0
-211 -221 -7023 -7027 -7028 0
-217 -221 -7023 -7027 -7028 0
-218 -221 -7023 -7027 -7028 0
-219 -221 -7023 -7027 -7028 0
-220 -221 -7023 -7027 -7028 0
-227 -211 -7023 -7027 -7028 0
-217 -227 -7023 -7027 -7028 0
-218 -227 -7023 -7027 -7028 0
-219 -227 -7023 -7027 -7028 0
-220 -227 -7023 -7027 -7028 0
-228 -211 -7023 -7027 -7028 0
-228 -217 -7023 -7027 -7028 0
-218 -228 -7023 -7027 -7028 0
-219 -228 -7023 -7027 -7028 0
-220 -228 -7023 -7027 -7028 0
-229 -211 -7023 -7027 -7028 0
-229 -217 -7023 -7027 -7028 0
-229 -218 -7023 -7027 -7028 0
-219 -229 -7023 -7027 -7028 0
-220 -229 -7023 -7027 -7028 0
-230 -211 -7023 -7027 -7028 0
-230 -217 -7023 -7027 -7028 0
-230 -218 -7023 -7027 -7028 0
-219 -230 -7023 -7027 -7028 0
-220 -230 -7023 -7027 -7028 0
-211 -221 -7024 -7028 0
-217 -221 -7024 -7028 0
-218 -221 -7024 -7028 0
-219 -221 -7024 -7028 0
-220 -221 -7024 -7028 0
-227 -211 -7024 -7028 0
-217 -227 -7024 -7028 0
-218 -227 -7024 -7028 0
-219 -227 -7024 -7028 0
-220 -227 -7024 -7028 0
-228 -211 -7024 -7028 0
-228 -217 -7024 -7028 0
-218 -228 -7024 -7028 0
-219 -228 -7024 -7028 0
-220 -228 -7024 -7028 0
-229 -211 -7024 -7028 0
-229 -217 -7024 -7028 0
-229 -218 -7024 -7028 0
-219 -229 -7024 -7028 0
-220 -229 -7024 -7028 0
-230 -211 -7024 -7028 0
-230 -217 -7024 -7028 0
-230 -218 -7024 -7028 0
-219 -230 -7024 -7028 0
-220 -230 -7024 -7028 0
-211 -221 -7024 -7027 0
-217 -221 -7024 -7027 0
-218 -221 -7024 -7027 0
-219 -221 -7024 -7027 0
-220 -221 -7024 -7027 0
-227 -211 -7024 -7027 0
-217 -227 -7024 -7027 0
-218 -227 -7024 -7027 0
-219 -227 -7024 -7027 0
-220 -227 -7024 -7027 0
-228 -211 -7024 -7027 0
-228 -217 -7024 -7027 0
-218 -228 -7024 -7027 0
-219 -228 -7024 -7027 0
-220 -228 -7024 -7027 0
-229 -211 -7024 -7027 0
-229 -217 -7024 -7027 0
-229 -218 -7024 -7027 0
-219 -229 -7024 -7027 0
-220 -229 -7024 -7027 0
-230 -211 -7024 -7027 0
-230 -217 -7024 -7027 0
-230 -218 -7024 -7027 0
-219 -230 -7024 -7027 0
-220 -230 -7024 -7027 0
-211 -231 -7024 -7027 0
-217 -231 -7024 -7027 0
-218 -231 -7024 -7027 0
-219 -231 -7024 -7027 0
-220 -231 -7024 -7027 0
-237 -211 -7024 -7027 0
-217 -237 -7024 -7027 0
-218 -237 -7024 -7027 0
-219 -237 -7024 -7027 0
-220 -237 -7024 -7027 0
-238 -211 -7024 -7027 0
-238 -217 -7024 -7027 0
-218 -238 -7024 -7027 0
-219 -238 -7024 -7027 0
-220 -238 -7024 -7027 0
-239 -211 -7024 -7027 0
-239 -217 -7024 -7027 0
-239 -218 -7024 -7027 0
-219 -239 -7024 -7027 0
-220 -239 -7024 -7027 0
-240 -211 -7024 -7027 0
-240 -217 -7024 -7027 0
-240 -218 -7024 -7027 0
-219 -240 -7024 -7027 0
-220 -240 -7024 -7027 0
-221 -231 -7024 -7027 0
-227 -231 -7024 -7027 0
-228 -231 -7024 -7027 0
-229 -231 -7024 -7027 0
-230 -231 -7024 -7027 0
-237 -221 -7024 -7027 0
-227 -237 -7024 -7027 0
-228 -237 -7024 -7027 0
-229 -237 -7024 -7027 0
-230 -237 -7024 -7027 0
-238 -221 -7024 -7027 0
-238 -227 -7024 -7027 0
-228 -238 -7024 -7027 0
-229 -238 -7024 -7027 0
-230 -238 -7024 -7027 0
-239 -221 -7024 -7027 0
-239 -227 -7024 -7027 0
-239 -228 -7024 -7027 0
-229 -239 -7024 -7027 0
-230 -239 -7024 -7027 0
-240 -221 -7024 -7027 0
-240 -227 -7024 -7027 0
-240 -228 -7024 -7027 0
-229 -240 -7024 -7027 0
-230 -240 -7024 -7027 0
-7025 -211 -221 0
-7025 -217 -221 0
-7025 -218 -221 0
-7025 -219 -221 0
-7025 -220 -221 0
-7025 -211 -227 0
-7025 -217 -227 0
-7025 -218 -227 0
-7025 -219 -227 0
-7025 -220 -227 0
-7025 -211 -228 0
-7025 -217 -228 0
-7025 -218 -228 0
-7025 -219 -228 0
-7025 -220 -228 0
-7025 -211 -229 0
-7025 -217 -229 0
-7025 -218 -229 0
-7025 -219 -229 0
-7025 -220 -229 0
-7025 -211 -230 0
-7025 -217 -230 0
-7025 -218 -230 0
-7025 -219 -230 0
-7025 -220 -230 0
-7025 -211 -231 0
-7025 -217 -231 0
-7025 -218 -231 0
-7025 -219 -231 0
-7025 -220 -231 0
-7025 -211 -237 0
-7025 -217 -237 0
-7025 -218 -237 0
-7025 -219 -237 0
-7025 -220 -237 0
-7025 -211 -238 0
-7025 -217 -238 0
-7025 -218 -238 0
-7025 -219 -238 0
-7025 -220 -238 0
-7025 -211 -239 0
-7025 -217 -239 0
-7025 -218 -239 0
-7025 -219 -239 0
-7025 -220 -239 0
-7025 -211 -240 0
-7025 -217 -240 0
-7025 -218 -240 0
-7025 -219 -240 0
-7025 -220 -240 0
-7025 -211 -241 0
-7025 -217 -241 0
-7025 -218 -241 0
-7025 -219 -241 0
-7025 -220 -241 0
-7025 -211 -247 0
-7025 -217 -247 0
-7025 -218 -247 0
-7025 -219 -247 0
-7025 -220 -247 0
-7025 -211 -248 0
-7025 -217 -248 0
-7025 -218 -248 0
-7025 -219 -248 0
-7025 -220 -248 0
-7025 -211 -249 0
-7025 -217 -249 0
-7025 -218 -249 0
-7025 -219 -249 0
-7025 -220 -249 0
-7025 -211 -250 0
-7025 -217 -250 0
-7025 -218 -250 0
-7025 -219 -250 0
-7025 -220 -250 0
-7025 -221 -231 0
-7025 -227 -231 0
-7025 -228 -231 0
-7025 -229 -231 0
-7025 -230 -231 0
-7025 -221 -237 0
-7025 -227 -237 0
-7025 -228 -237 0
-7025 -229 -237 0
-7025 -230 -237 0
-7025 -221 -238 0
-7025 -227 -238 0
-7025 -228 -238 0
-7025 -229 -238 0
-7025 -230 -238 0
-7025 -221 -239 0
-7025 -227 -239 0
-7025 -228 -239 0
-7025 -229 -239 0
-7025 -230 -239 0
-7025 -221 -240 0
-7025 -227 -240 0
-7025 -228 -240 0
-7025 -229 -240 0
-7025 -230 -240 0
-7025 -221 -241 0
-7025 -227 -241 0
-7025 -228 -241 0
-7025 -229 -241 0
-7025 -230 -241 0
-7025 -221 -247 0
-7025 -227 -247 0
-7025 -228 -247 0
-7025 -229 -247 0
-7025 -230 -247 0
-7025 -221 -248 0
-7025 -227 -248 0
-7025 -228 -248 0
-7025 -229 -248 0
-7025 -230 -248 0
-7025 -221 -249 0
-7025 -227 -249 0
-7025 -228 -249 0
-7025 -229 -249 0
-7025 -230 -249 0
-7025 -221 -250 0
-7025 -227 -250 0
-7025 -228 -250 0
-7025 -229 -250 0
-7025 -230 -250 0
-7025 -231 -241 0
-7025 -237 -241 0
-7025 -238 -241 0
-7025 -239 -241 0
-7025 -240 -241 0
-7025 -231 -247 0
-7025 -237 -247 0
-7025 -238 -247 0
-7025 -239 -247 0
-7025 -240 -247 0
-7025 -231 -248 0
-7025 -237 -248 0
-7025 -238 -248 0
-7025 -239 -248 0
-7025 -240 -248 0
-7025 -231 -249 0
-7025 -237 -249 0
-7025 -238 -249 0
-7025 -239 -249 0
-7025 -240 -249 0
-7025 -231 -250 0
-7025 -237 -250 0
-7025 -238 -250 0
-7025 -239 -250 0
-7025 -240 -250 0
-7026 -211 0
-7026 -217 0
-7026 -218 0
-7026 -219 0
-7026 -220 0
-7026 -221 0
-7026 -227 0
-7026 -228 0
-7026 -229 0
-7026 -230 0
-7026 -231 0
-7026 -237 0
-7026 -238 0
-7026 -239 0
-7026 -240 0
-7026 -241 0
-7026 -247 0
-7026 -248 0
-7026 -249 0
-7026 -250 0
-7019 7029 0
-7020 7030 0
-7021 7031 0
-7023 7029 0
-7024 7030 0
-7025 7031 0
-7026 7032 0
-7019 -7023 7030 0
-7019 -7024 7031 0
-7019 -7025 7032 0
-7019 -7026 7033 0
-7020 -7023 7031 0
-7020 -7024 7032 0
-7020 -7025 7033 0
-7021 -7023 7032 0
-7021 -7024 7033 0
7019 7023 -7029 0
7019 7024 -7030 0
7020 7023 -7030 0
7019 7025 -7031 0
7020 7024 -7031 0
7021 7023 -7031 0
7023 -7032 0
7019 7026 -7032 0
7020 7025 -7032 0
7021 7024 -7032 0
7024 -7033 0
7019 -7033 0
7020 7026 -7033 0
7021 7025 -7033 0
-7014 7034 0
-7015 7035 0
-7016 7036 0
-7017 7037 0
-7018 7038 0
-7029 7034 0
-7030 7035 0
-7031 7036 0
-7032 7037 0
-7033 7038 0
-7014 -7029 7035 0
-7014 -7030 7036 0
-7014 -7031 7037 0
-7014 -7032 7038 0
-7015 -7029 7036 0
-7015 -7030 7037 0
-7015 -7031 7038 0
-7016 -7029 7037 0
-7016 -7030 7038 0
-7017 -7029 7038 0
7014 7029 -7034 0
7014 7030 -7035 0
7015 7029 -7035 0
7014 7031 -7036 0
7015 7030 -7036 0
7016 7029 -7036 0
7014 7032 -7037 0
7015 7031 -7037 0
7016 7030 -7037 0
7017 7029 -7037 0
7014 7033 -7038 0
7015 7032 -7038 0
7016 7031 -7038 0
7017 7030 -7038 0
7018 7029 -7038 0
-7001 7039 0
-7002 7040 0
-7003 7041 0
-7004 7042 0
-7005 6653 0
-7034 7039 0
-7035 7040 0
-7036 7041 0
-7037 7042 0
-7038 6653 0
-7001 -7034 7040 0
-7001 -7035 7041 0
-7001 -7036 7042 0
-7001 -7037 6653 0
-7002 -7034 7041 0
-7002 -7035 7042 0
-7002 -7036 6653 0
-7003 -7034 7042 0
-7003 -7035 6653 0
-7004 -7034 6653 0
7001 7034 -7039 0
7001 7035 -7040 0
7002 7034 -7040 0
7001 7036 -7041 0
7002 7035 -7041 0
7003 7034 -7041 0
7001 7037 -7042 0
7002 7036 -7042 0
7003 7035 -7042 0
7004 7034 -7042 0
7001 7038 -6653 0
7002 7037 -6653 0
7003 7036 -6653 0
7004 7035 -6653 0
7005 7034 -6653 0
c 1 r_000
c 7 r_001
c 8 r_002
c 9 r_003
c 10 r_004
c 11 r_010
c 17 r_011
c 18 r_012
c 19 r_013
c 20 r_014
c 21 r_020
c 27 r_021
c 28 r_022
c 29 r_023
c 30 r_024
c 31 r_030
c 37 r_031
c 38 r_032
c 39 r_033
c 40 r_034
c 41 r_040
c 47 r_041
c 48 r_042
c 49 r_043
c 50 r_044
c 51 r_100
c 57 r_101
c 58 r_102
c 59 r_103
c 60 r_104
c 61 r_110
c 67 r_111
c 68 r_112
c 69 r_113
c 70 r_114
c 71 r_120
c 77 r_121
c 78 r_122
c 79 r_123
c 80 r_124
c 81 r_130
c 87 r_131
c 88 r_132
c 89 r_133
c 90 r_134
c 91 r_140
c 97 r_141
c 98 r_142
c 99 r_143
c 100 r_144
c 101 r_200
c 107 r_201
c 108 r_202
c 109 r_203
c 110 r_204
c 111 r_210
c 117 r_211
c 118 r_212
c 119 r_213
c 120 r_214
c 121 r_220
c 127 r_221
c 128 r_222
c 129 r_223
c 130 r_224
c 131 r_230
c 137 r_231
c 138 r_232
c 139 r_233
c 140 r_234
c 141 r_240
c 147 r_241
c 148 r_242
c 149 r_243
c 150 r_244
c 151 r_300
c 157 r_301
c 158 r_302
c 159 r_303
c 160 r_304
c 161 r_310
c 167 r_311
c 168 r_312
c 169 r_313
c 170 r_314
c 171 r_320
c 177 r_321
c 178 r_322
c 179 r_323
c 180 r_324
c 181 r_330
c 187 r_331
c 188 r_332
c 189 r_333
c 190 r_334
c 191 r_340
c 197 r_341
c 198 r_342
c 199 r_343
c 200 r_344
c 201 r_400
c 207 r_401
c 208 r_402
c 209 r_403
c 210 r_404
c 211 r_410
c 217 r_411
c 218 r_412
c 219 r_413
c 220 r_414
c 221 r_420
c 227 r_421
c 228 r_422
c 229 r_423
c 230 r_424
c 231 r_430
c 237 r_431
c 238 r_432
c 239 r_433
c 240 r_434
c 241 r_440
c 247 r_441
c 248 r_442
c 249 r_443
c 250 r_444
c 3281 c_000
c 3282 c_001
c 3441 c_002
c 3459 c_003
c 3455 c_004
c 3251 c_005
c 3252 c_006
c 3253 c_007
c 3286 c_010
c 3287 c_011
c 3310 c_012
c 3309 c_013
c 3311 c_014
c 3308 c_015
c 3312 c_016
c 3285 c_017
c 3292 c_020
c 3293 c_021
c 3318 c_022
c 3317 c_023
c 3319 c_024
c 3316 c_025
c 3320 c_026
c 3291 c_027
c 3298 c_030
c 3299 c_031
c 3326 c_032
c 3325 c_033
c 3327 c_034
c 3324 c_035
c 3328 c_036
c 3297 c_037
c 3304 c_040
c 3254 c_041
c 3255 c_042
c 3256 c_043
c 3475 c_044
c 3470 c_045
c 3449 c_046
c 3303 c_047
c 3334 c_100
c 3332 c_101
c 3335 c_102
c 3333 c_103
c 3336 c_104
c 3257 c_105
c 3258 c_106
c 3259 c_107
c 3442 c_110
c 3445 c_111
c 3464 c_112
c 3489 c_113
c 3483 c_114
c 3479 c_115
c 3456 c_116
c 3440 c_117
c 3446 c_120
c 3450 c_121
c 3471 c_122
c 3498 c_123
c 3490 c_124
c 3484 c_125
c 3460 c_126
c 3443 c_127
c 3451 c_130
c 3454 c_131
c 3476 c_132
c 3504 c_133
c 3499 c_134
c 3491 c_135
c 3465 c_136
c 3447 c_137
c 3354 c_140
c 3260 c_141
c 3261 c_142
c 3262 c_143
c 3355 c_144
c 3353 c_145
c 3356 c_146
c 3352 c_147
c 3362 c_200
c 3360 c_201
c 3363 c_202
c 3361 c_203
c 3364 c_204
c 3263 c_205
c 3264 c_206
c 3265 c_207
c 3461 c_210
c 3466 c_211
c 3492 c_212
c 3517 c_213
c 3512 c_214
c 3508 c_215
c 3480 c_216
c 3457 c_217
c 3467 c_220
c 3472 c_221
c 3500 c_222
c 3523 c_223
c 3518 c_224
c 3513 c_225
c 3485 c_226
c 3462 c_227
c 3473 c_230
c 3477 c_231
c 3505 c_232
c 3528 c_233
c 3524 c_234
c 3519 c_235
c 3493 c_236
c 3468 c_237
c 3382 c_240
c 3266 c_241
c 3267 c_242
c 3268 c_243
c 3383 c_244
c 3381 c_245
c 3384 c_246
c 3380 c_247
c 3390 c_300
c 3388 c_301
c 3391 c_302
c 3389 c_303
c 3392 c_304
c 3269 c_305
c 3270 c_306
c 3271 c_307
c 3486 c_310
c 3494 c_311
c 3520 c_312
c 3538 c_313
c 3534 c_314
c 3533 c_315
c 3509 c_316
c 3481 c_317
c 3495 c_320
c 3501 c_321
c 3525 c_322
c 3542 c_323
c 3539 c_324
c 3535 c_325
c 3514 c_326
c 3487 c_327
c 3502 c_330
c 3506 c_331
c 3529 c_332
c 3547 c_333
c 3543 c_334
c 3540 c_335
c 3521 c_336
c 3496 c_337
c 3410 c_340
c 3272 c_341
c 3273 c_342
c 3274 c_343
c 3411 c_344
c 3409 c_345
c 3412 c_346
c 3408 c_347
c 3510 c_400
c 3515 c_401
c 3536 c_402
c 3283 c_403
c 3284 c_404
c 3275 c_405
c 3276 c_406
c 3277 c_407
c 3418 c_410
c 3416 c_411
c 3419 c_412
c 3288 c_413
c 3289 c_414
c 3290 c_415
c 3420 c_416
c 3417 c_417
c 3426 c_420
c 3424 c_421
c 3427 c_422
c 3294 c_423
c 3295 c_424
c 3296 c_425
c 3428 c_426
c 3425 c_427
c 3434 c_430
c 3432 c_431
c 3435 c_432
c 3300 c_433
c 3301 c_434
c 3302 c_435
c 3436 c_436
c 3433 c_437
c 3530 c_440
c 3278 c_441
c 3279 c_442
c 3280 c_443
c 3305 c_444
c 3306 c_445
c 3544 c_446
c 3526 c_447
c 6680 dsort!182
c 6665 dsort!165
c 6674 dsort!175
c 6656 dsort!154
c 6675 dsort!176
c 6668 dsmerge!168
c 6658 dsort!158
c 6667 dsmerge!167
c 6686 dsort!188
c 3340 dsmerge!169
c 6659 dsort!159
c 6685 dsort!187
c 6681 dsort!183
c 3342 dsmerge!181
c 3330 dsort!155
c 6682 dsort!184
c 6663 dsort!163
c 6669 dsort!170
c 6660 dsort!160
c 6661 dsort!161
c 6662 dsort!162
c 6666 dsmerge!166
c 6677 dsmerge!178
c 6678 dsmerge!179
c 6687 dsort!189
c 6671 dsort!172
c 6672 dsort!173
c 6655 dsort!152
c 3322 dsort!153
c 6673 dsort!174
c 6683 dsort!185
c 3314 dsort!151
c 6676 dsort!177
c 6684 dsort!186
c 6657 dsort!156
c 3338 dsort!157
c 6664 dsort!164
c 2 k!25
c 3 k!26
c 4 k!27
c 5 k!28
c 6 k!29
c 6654 dsort!150
c 12 k!33
c 13 k!32
c 14 k!31
c 15 k!30
c 16 k!34
c 22 k!38
c 23 k!37
c 24 k!36
c 25 k!35
c 26 k!39
c 32 k!43
c 33 k!42
c 34 k!41
c 35 k!40
c 36 k!44
c 42 k!48
c 43 k!47
c 44 k!46
c 45 k!45
c 46 k!49
c 52 k!53
c 53 k!52
c 54 k!51
c 55 k!50
c 56 k!54
c 62 k!58
c 63 k!57
c 64 k!56
c 65 k!55
c 66 k!59
c 72 k!63
c 73 k!62
c 74 k!61
c 75 k!60
c 76 k!64
c 82 k!68
c 83 k!67
c 84 k!66
c 85 k!65
c 86 k!69
c 92 k!73
c 93 k!72
c 94 k!71
c 95 k!70
c 96 k!74
c 102 k!78
c 103 k!77
c 104 k!76
c 105 k!75
c 106 k!79
c 112 k!83
c 113 k!82
c 114 k!81
c 115 k!80
c 116 k!84
c 122 k!88
c 123 k!87
c 124 k!86
c 125 k!85
c 126 k!89
c 132 k!93
c 133 k!92
c 134 k!91
c 135 k!90
c 136 k!94
c 142 k!98
c 143 k!97
c 144 k!96
c 145 k!95
c 146 k!99
c 152 k!103
c 153 k!102
c 154 k!101
c 155 k!100
c 156 k!104
c 6679 dsmerge!180
c 162 k!108
c 163 k!107
c 164 k!106
c 165 k!105
c 166 k!109
c 172 k!113
c 173 k!112
c 174 k!111
c 175 k!110
c 176 k!114
c 182 k!118
c 183 k!117
c 184 k!116
c 185 k!115
c 186 k!119
c 192 k!123
c 193 k!122
c 194 k!121
c 195 k!120
c 196 k!124
c 6670 dsort!171
c 202 k!128
c 203 k!127
c 204 k!126
c 205 k!125
c 206 k!129
c 212 k!133
c 213 k!132
c 214 k!131
c 215 k!130
c 216 k!134
c 222 k!138
c 223 k!137
c 224 k!136
c 225 k!135
c 226 k!139
c 232 k!143
c 233 k!142
c 234 k!141
c 235 k!140
c 236 k!144
c 242 k!148
c 243 k!147
c 244 k!146
c 245 k!145
c 246 k!149
c 6688 dsmerge!190
c 6689 dsmerge!191
c 6690 dsmerge!192
c 3344 dsmerge!193
c 6691 dsort!194
c 6692 dsort!195
c 6693 dsort!196
c 6694 dsort!197
c 6695 dsort!198
c 6696 dsort!199
c 6697 dsort!200
c 6698 dsort!201
c 6699 dsmerge!202
c 6700 dsmerge!203
c 6701 dsmerge!204
c 3346 dsmerge!205
c 6702 dsort!206
c 6703 dsort!207
c 6704 dsort!208
c 6705 dsort!209
c 6706 dsort!210
c 6707 dsort!211
c 6708 dsort!212
c 6709 dsort!213
c 6710 dsmerge!214
c 6711 dsmerge!215
c 6712 dsmerge!216
c 3348 dsmerge!217
c 6713 dsort!218
c 6714 dsort!219
c 6715 dsort!220
c 6716 dsort!221
c 6717 dsort!222
c 6718 dsort!223
c 6719 dsort!224
c 6720 dsort!225
c 6721 dsmerge!226
c 6722 dsmerge!227
c 6723 dsmerge!228
c 3350 dsmerge!229
c 6724 dsort!230
c 3358 dsort!231
c 6725 dsort!232
c 3366 dsort!233
c 6726 dsort!234
c 6727 dsort!235
c 6728 dsort!236
c 6729 dsort!237
c 6730 dsort!238
c 6731 dsort!239
c 6732 dsort!240
c 6733 dsort!241
c 6734 dsmerge!242
c 6735 dsmerge!243
c 6736 dsmerge!244
c 3368 dsmerge!245
c 6737 dsort!246
c 6738 dsort!247
c 6739 dsort!248
c 6740 dsort!249
c 6741 dsort!250
c 6742 dsort!251
c 6743 dsort!252
c 6744 dsort!253
c 6745 dsmerge!254
c 6746 dsmerge!255
c 6747 dsmerge!256
c 3370 dsmerge!257
c 6748 dsort!258
c 6749 dsort!259
c 6750 dsort!260
c 6751 dsort!261
c 6752 dsort!262
c 6753 dsort!263
c 6754 dsort!264
c 6755 dsort!265
c 6756 dsmerge!266
c 6757 dsmerge!267
c 6758 dsmerge!268
c 3372 dsmerge!269
c 6759 dsort!270
c 6760 dsort!271
c 6761 dsort!272
c 6762 dsort!273
c 6763 dsort!274
c 6764 dsort!275
c 6765 dsort!276
c 6766 dsort!277
c 6767 dsmerge!278
c 6768 dsmerge!279
c 6769 dsmerge!280
c 3374 dsmerge!281
c 6770 dsort!282
c 6771 dsort!283
c 6772 dsort!284
c 6773 dsort!285
c 6774 dsort!286
c 6775 dsort!287
c 6776 dsort!288
c 6777 dsort!289
c 6778 dsmerge!290
c 6779 dsmerge!291
c 6780 dsmerge!292
c 3376 dsmerge!293
c 6781 dsort!294
c 6782 dsort!295
c 6783 dsort!296
c 6784 dsort!297
c 6785 dsort!298
c 6786 dsort!299
c 6787 dsort!300
c 6788 dsort!301
c 6789 dsmerge!302
c 6790 dsmerge!303
c 6791 dsmerge!304
c 3378 dsmerge!305
c 6792 dsort!306
c 3386 dsort!307
c 6793 dsort!308
c 3394 dsort!309
c 6794 dsort!310
c 6795 dsort!311
c 6796 dsort!312
c 6797 dsort!313
c 6798 dsort!314
c 6799 dsort!315
c 6800 dsort!316
c 6801 dsort!317
c 6802 dsmerge!318
c 6803 dsmerge!319
c 6804 dsmerge!320
c 3396 dsmerge!321
c 6805 dsort!322
c 6806 dsort!323
c 6807 dsort!324
c 6808 dsort!325
c 6809 dsort!326
c 6810 dsort!327
c 6811 dsort!328
c 6812 dsort!329
c 6813 dsmerge!330
c 6814 dsmerge!331
c 6815 dsmerge!332
c 3398 dsmerge!333
c 6816 dsort!334
c 6817 dsort!335
c 6818 dsort!336
c 6819 dsort!337
c 6820 dsort!338
c 6821 dsort!339
c 6822 dsort!340
c 6823 dsort!341
c 6824 dsmerge!342
c 6825 dsmerge!343
c 6826 dsmerge!344
c 3400 dsmerge!345
c 6827 dsort!346
c 6828 dsort!347
c 6829 dsort!348
c 6830 dsort!349
c 6831 dsort!350
c 6832 dsort!351
c 6833 dsort!352
c 6834 dsort!353
c 6835 dsmerge!354
c 6836 dsmerge!355
c 6837 dsmerge!356
c 3402 dsmerge!357
c 6838 dsort!358
c 6839 dsort!359
c 6840 dsort!360
c 6841 dsort!361
c 6842 dsort!362
c 6843 dsort!363
c 6844 dsort!364
c 6845 dsort!365
c 6846 dsmerge!366
c 6847 dsmerge!367
c 6848 dsmerge!368
c 3404 dsmerge!369
c 6849 dsort!370
c 6850 dsort!371
c 6851 dsort!372
c 6852 dsort!373
c 6853 dsort!374
c 6854 dsort!375
c 6855 dsort!376
c 6856 dsort!377
c 6857 dsmerge!378
c 6858 dsmerge!379
c 6859 dsmerge!380
c 3406 dsmerge!381
c 6860 dsort!382
c 3414 dsort!383
c 6861 dsort!384
c 3422 dsort!385
c 6862 dsort!386
c 3430 dsort!387
c 6863 dsort!388
c 3438 dsort!389
c 6864 dsort!390
c 3444 dsort!391
c 6865 dsort!392
c 3448 dsort!393
c 6866 dsort!394
c 3452 dsort!395
c 6867 dsort!396
c 3458 dsort!397
c 6868 dsort!398
c 6869 dsort!399
c 6870 dsort!400
c 6871 dsort!401
c 6872 dsort!402
c 6873 dsort!403
c 6874 dsort!404
c 6875 dsort!405
c 6876 dsmerge!406
c 6877 dsmerge!407
c 6878 dsmerge!408
c 3463 dsmerge!409
c 6879 dsort!410
c 6880 dsort!411
c 6881 dsort!412
c 6882 dsort!413
c 6883 dsort!414
c 6884 dsort!415
c 6885 dsort!416
c 6886 dsort!417
c 6887 dsmerge!418
c 6888 dsmerge!419
c 6889 dsmerge!420
c 3469 dsmerge!421
c 6890 dsort!422
c 6891 dsort!423
c 6892 dsort!424
c 6893 dsort!425
c 6894 dsort!426
c 6895 dsort!427
c 6896 dsort!428
c 6897 dsort!429
c 6898 dsmerge!430
c 6899 dsmerge!431
c 6900 dsmerge!432
c 3474 dsmerge!433
c 6901 dsort!434
c 3478 dsort!435
c 6902 dsort!436
c 3482 dsort!437
c 6903 dsort!438
c 6904 dsort!439
c 6905 dsort!440
c 6906 dsort!441
c 6907 dsort!442
c 6908 dsort!443
c 6909 dsort!444
c 6910 dsort!445
c 6911 dsmerge!446
c 6912 dsmerge!447
c 6913 dsmerge!448
c 3488 dsmerge!449
c 6914 dsort!450
c 6915 dsort!451
c 6916 dsort!452
c 6917 dsort!453
c 6918 dsort!454
c 6919 dsort!455
c 6920 dsort!456
c 6921 dsort!457
c 6922 dsmerge!458
c 6923 dsmerge!459
c 6924 dsmerge!460
c 3497 dsmerge!461
c 6925 dsort!462
c 6926 dsort!463
c 6927 dsort!464
c 6928 dsort!465
c 6929 dsort!466
c 6930 dsort!467
c 6931 dsort!468
c 6932 dsort!469
c 6933 dsmerge!470
c 6934 dsmerge!471
c 6935 dsmerge!472
c 3503 dsmerge!473
c 6936 dsort!474
c 3507 dsort!475
c 6937 dsort!476
c 3511 dsort!477
c 6938 dsort!478
c 6939 dsort!479
c 6940 dsort!480
c 6941 dsort!481
c 6942 dsort!482
c 6943 dsort!483
c 6944 dsort!484
c 6945 dsort!485
c 6946 dsmerge!486
c 6947 dsmerge!487
c 6948 dsmerge!488
c 3516 dsmerge!489
c 6949 dsort!490
c 6950 dsort!491
c 6951 dsort!492
c 6952 dsort!493
c 6953 dsort!494
c 6954 dsort!495
c 6955 dsort!496
c 6956 dsort!497
c 6957 dsmerge!498
c 6958 dsmerge!499
c 6959 dsmerge!500
c 3522 dsmerge!501
c 6960 dsort!502
c 6961 dsort!503
c 6962 dsort!504
c 6963 dsort!505
c 6964 dsort!506
c 6965 dsort!507
c 6966 dsort!508
c 6967 dsort!509
c 6968 dsmerge!510
c 6969 dsmerge!511
c 6970 dsmerge!512
c 3527 dsmerge!513
c 6971 dsort!514
c 3531 dsort!515
c 6972 dsort!516
c 3537 dsort!517
c 6973 dsort!518
c 3541 dsort!519
c 6974 dsort!520
c 3545 dsort!521
c 6975 dsort!522
c 6976 dsort!523
c 6977 dsort!524
c 6979 dsort!525
c 6980 dsort!526
c 6981 dsort!527
c 6983 dsmerge!528
c 6984 dsmerge!529
c 6985 dsmerge!530
c 6986 dsmerge!531
c 6987 dsmerge!532
c 6988 dsort!533
c 6989 dsort!534
c 6990 dsort!535
c 6992 dsort!536
c 6993 dsort!537
c 6994 dsort!538
c 6996 dsmerge!539
c 6997 dsmerge!540
c 6998 dsmerge!541
c 6999 dsmerge!542
c 7000 dsmerge!543
c 7001 dsmerge!544
c 7002 dsmerge!545
c 7003 dsmerge!546
c 7004 dsmerge!547
c 7005 dsmerge!548
c 7006 dsort!549
c 7007 dsort!550
c 7008 dsort!551
c 7010 dsort!552
c 7011 dsort!553
c 7012 dsort!554
c 7014 dsmerge!555
c 7015 dsmerge!556
c 7016 dsmerge!557
c 7017 dsmerge!558
c 7018 dsmerge!559
c 7019 dsort!560
c 7020 dsort!561
c 7021 dsort!562
c 7023 dsort!563
c 7024 dsort!564
c 7025 dsort!565
c 7026 dsort!566
c 7029 dsmerge!567
c 7030 dsmerge!568
c 7031 dsmerge!569
c 7032 dsmerge!570
c 7033 dsmerge!571
c 7034 dsmerge!572
c 7035 dsmerge!573
c 7036 dsmerge!574
c 7037 dsmerge!575
c 7038 dsmerge!576
c 7039 dsmerge!577
c 7040 dsmerge!578
c 7041 dsmerge!579
c 7042 dsmerge!580
c 6653 dsmerge!581
c 305 k!4453
c 402 k!4550
c 337 k!4485
c 306 k!4454
c 262 k!4410
c 319 k!4467
c 338 k!4486
c 304 k!4452
c 320 k!4468
c 307 k!4455
c 281 k!4429
c 324 k!4472
c 334 k!4482
c 323 k!4471
c 318 k!4466
c 326 k!4474
c 367 k!4515
c 259 k!4407
c 295 k!4443
c 266 k!4414
c 312 k!4460
c 376 k!4524
c 273 k!4421
c 372 k!4520
c 388 k!4536
c 289 k!4437
c 393 k!4541
c 321 k!4469
c 264 k!4412
c 293 k!4441
c 258 k!4406
c 342 k!4490
c 310 k!4458
c 379 k!4527
c 333 k!4481
c 400 k!4548
c 317 k!4465
c 270 k!4418
c 290 k!4438
c 332 k!4480
c 267 k!4415
c 380 k!4528
c 352 k!4500
c 316 k!4464
c 347 k!4495
c 302 k!4450
c 377 k!4525
c 308 k!4456
c 375 k!4523
c 331 k!4479
c 368 k!4516
c 349 k!4497
c 325 k!4473
c 287 k!4435
c 391 k!4539
c 344 k!4492
c 362 k!4510
c 285 k!4433
c 336 k!4484
c 360 k!4508
c 398 k!4546
c 297 k!4445
c 286 k!4434
c 301 k!4449
c 397 k!4545
c 358 k!4506
c 283 k!4431
c 343 k!4491
c 269 k!4417
c 340 k!4488
c 401 k!4549
c 384 k!4532
c 330 k!4478
c 278 k!4426
c 272 k!4420
c 311 k!4459
c 294 k!4442
c 386 k!4534
c 265 k!4413
c 292 k!4440
c 403 k!4551
c 276 k!4424
c 328 k!4476
c 255 k!4403
c 381 k!4529
c 300 k!4448
c 291 k!4439
c 363 k!4511
c 298 k!4446
c 279 k!4427
c 252 k!4400
c 339 k!4487
c 382 k!4530
c 282 k!4430
c 256 k!4404
c 263 k!4411
c 389 k!4537
c 357 k!4505
c 257 k!4405
c 253 k!4401
c 296 k!4444
c 299 k!4447
c 383 k!4531
c 390 k!4538
c 370 k!4518
c 369 k!4517
c 346 k!4494
c 395 k!4543
c 365 k!4513
c 303 k!4451
c 268 k!4416
c 350 k!4498
c 385 k!4533
c 353 k!4501
c 261 k!4409
c 374 k!4522
c 277 k!4425
c 313 k!4461
c 392 k!4540
c 371 k!4519
c 378 k!4526
c 315 k!4463
c 322 k!4470
c 399 k!4547
c 396 k!4544
c 387 k!4535
c 335 k!4483
c 254 k!4402
c 327 k!4475
c 354 k!4502
c 348 k!4496
c 364 k!4512
c 271 k!4419
c 341 k!4489
c 309 k!4457
c 274 k!4422
c 260 k!4408
c 394 k!4542
c 373 k!4521
c 329 k!4477
c 366 k!4514
c 351 k!4499
c 251 k!4399
c 284 k!4432
c 275 k!4423
c 314 k!4462
c 288 k!4436
c 280 k!4428
c 355 k!4503
c 361 k!4509
c 345 k!4493
c 359 k!4507
c 356 k!4504
c 404 k!4552
c 405 k!4553
c 406 k!4554
c 407 k!4555
c 408 k!4556
c 409 k!4557
c 410 k!4558
c 411 k!4559
c 412 k!4560
c 413 k!4561
c 414 k!4562
c 415 k!4563
c 416 k!4564
c 417 k!4565
c 418 k!4566
c 419 k!4567
c 420 k!4568
c 421 k!4569
c 422 k!4570
c 423 k!4571
c 424 k!4572
c 425 k!4573
c 426 k!4574
c 427 k!4575
c 428 k!4576
c 429 k!4577
c 430 k!4578
c 431 k!4579
c 432 k!4580
c 433 k!4581
c 434 k!4582
c 435 k!4583
c 436 k!4584
c 437 k!4585
c 438 k!4586
c 439 k!4587
c 440 k!4588
c 441 k!4589
c 442 k!4590
c 443 k!4591
c 444 k!4592
c 445 k!4593
c 446 k!4594
c 447 k!4595
c 448 k!4596
c 449 k!4597
c 450 k!4598
c 451 k!4599
c 452 k!4600
c 453 k!4601
c 454 k!4602
c 455 k!4603
c 456 k!4604
c 457 k!4605
c 458 k!4606
c 459 k!4607
c 460 k!4608
c 461 k!4609
c 462 k!4610
c 463 k!4611
c 464 k!4612
c 465 k!4613
c 466 k!4614
c 467 k!4615
c 468 k!4616
c 469 k!4617
c 470 k!4618
c 471 k!4619
c 472 k!4620
c 473 k!4621
c 474 k!4622
c 475 k!4623
c 476 k!4624
c 477 k!4625
c 478 k!4626
c 479 k!4627
c 480 k!4628
c 481 k!4629
c 482 k!4630
c 483 k!4631
c 484 k!4632
c 485 k!4633
c 486 k!4634
c 487 k!4635
c 488 k!4636
c 489 k!4637
c 490 k!4638
c 491 k!4639
c 492 k!4640
c 493 k!4641
c 494 k!4642
c 495 k!4643
c 496 k!4644
c 497 k!4645
c 498 k!4646
c 499 k!4647
c 500 k!4648
c 501 k!4649
c 502 k!4650
c 503 k!4651
c 504 k!4652
c 505 k!4653
c 506 k!4654
c 507 k!4655
c 508 k!4656
c 509 k!4657
c 510 k!4658
c 511 k!4659
c 512 k!4660
c 513 k!4661
c 514 k!4662
c 515 k!4663
c 516 k!4664
c 517 k!4665
c 518 k!4666
c 519 k!4667
c 520 k!4668
c 521 k!4669
c 522 k!4670
c 523 k!4671
c 524 k!4672
c 525 k!4673
c 526 k!4674
c 527 k!4675
c 528 k!4676
c 529 k!4677
c 530 k!4678
c 531 k!4679
c 532 k!4680
c 533 k!4681
c 534 k!4682
c 535 k!4683
c 536 k!4684
c 537 k!4685
c 538 k!4686
c 539 k!4687
c 540 k!4688
c 541 k!4689
c 542 k!4690
c 543 k!4691
c 544 k!4692
c 545 k!4693
c 546 k!4694
c 547 k!4695
c 548 k!4696
c 549 k!4697
c 550 k!4698
c 551 k!4699
c 552 k!4700
c 553 k!4701
c 554 k!4702
c 555 k!4703
c 556 k!4704
c 557 k!4705
c 558 k!4706
c 559 k!4707
c 560 k!4708
c 561 k!4709
c 562 k!4710
c 563 k!4711
c 564 k!4712
c 565 k!4713
c 566 k!4714
c 567 k!4715
c 568 k!4716
c 569 k!4717
c 570 k!4718
c 571 k!4719
c 572 k!4720
c 573 k!4721
c 574 k!4722
c 575 k!4723
c 576 k!4724
c 577 k!4725
c 578 k!4726
c 579 k!4727
c 580 k!4728
c 581 k!4729
c 582 k!4730
c 583 k!4731
c 584 k!4732
c 585 k!4733
c 586 k!4734
c 587 k!4735
c 588 k!4736
c 589 k!4737
c 590 k!4738
c 591 k!4739
c 592 k!4740
c 593 k!4741
c 594 k!4742
c 595 k!4743
c 596 k!4744
c 597 k!4745
c 598 k!4746
c 599 k!4747
c 600 k!4748
c 601 k!4749
c 602 k!4750
c 603 k!4751
c 604 k!4752
c 605 k!4753
c 606 k!4754
c 607 k!4755
c 608 k!4756
c 609 k!4757
c 610 k!4758
c 611 k!4759
c 612 k!4760
c 613 k!4761
c 614 k!4762
c 615 k!4763
c 616 k!4764
c 617 k!4765
c 618 k!4766
c 619 k!4767
c 620 k!4768
c 621 k!4769
c 622 k!4770
c 623 k!4771
c 624 k!4772
c 625 k!4773
c 626 k!4774
c 627 k!4775
c 628 k!4776
c 629 k!4777
c 630 k!4778
c 631 k!4779
c 632 k!4780
c 633 k!4781
c 634 k!4782
c 635 k!4783
c 636 k!4784
c 637 k!4785
c 638 k!4786
c 639 k!4787
c 640 k!4788
c 641 k!4789
c 642 k!4790
c 643 k!4791
c 644 k!4792
c 645 k!4793
c 646 k!4794
c 647 k!4795
c 648 k!4796
c 649 k!4797
c 650 k!4798
c 651 k!4799
c 652 k!4800
c 653 k!4801
c 654 k!4802
c 655 k!4803
c 656 k!4804
c 657 k!4805
c 658 k!4806
c 659 k!4807
c 660 k!4808
c 661 k!4809
c 662 k!4810
c 663 k!4811
c 664 k!4812
c 665 k!4813
c 666 k!4814
c 667 k!4815
c 668 k!4816
c 669 k!4817
c 670 k!4818
c 671 k!4819
c 672 k!4820
c 673 k!4821
c 674 k!4822
c 675 k!4823
c 676 k!4824
c 677 k!4825
c 678 k!4826
c 679 k!4827
c 680 k!4828
c 681 k!4829
c 682 k!4830
c 683 k!4831
c 684 k!4832
c 685 k!4833
c 686 k!4834
c 687 k!4835
c 688 k!4836
c 689 k!4837
c 690 k!4838
c 691 k!4839
c 692 k!4840
c 693 k!4841
c 694 k!4842
c 695 k!4843
c 696 k!4844
c 697 k!4845
c 698 k!4846
c 699 k!4847
c 700 k!4848
c 701 k!4849
c 702 k!4850
c 703 k!4851
c 704 k!4852
c 705 k!4853
c 706 k!4854
c 707 k!4855
c 708 k!4856
c 709 k!4857
c 710 k!4858
c 711 k!4859
c 712 k!4860
c 713 k!4861
c 714 k!4862
c 715 k!4863
c 716 k!4864
c 717 k!4865
c 718 k!4866
c 719 k!4867
c 720 k!4868
c 721 k!4869
c 722 k!4870
c 723 k!4871
c 724 k!4872
c 725 k!4873
c 726 k!4874
c 727 k!4875
c 728 k!4876
c 729 k!4877
c 730 k!4878
c 731 k!4879
c 732 k!4880
c 733 k!4881
c 734 k!4882
c 735 k!4883
c 736 k!4884
c 737 k!4885
c 738 k!4886
c 739 k!4887
c 740 k!4888
c 741 k!4889
c 742 k!4890
c 743 k!4891
c 744 k!4892
c 745 k!4893
c 746 k!4894
c 747 k!4895
c 748 k!4896
c 749 k!4897
c 750 k!4898
c 751 k!4899
c 752 k!4900
c 753 k!4901
c 754 k!4902
c 755 k!4903
c 756 k!4904
c 757 k!4905
c 758 k!4906
c 759 k!4907
c 760 k!4908
c 761 k!4909
c 762 k!4910
c 763 k!4911
c 764 k!4912
c 765 k!4913
c 766 k!4914
c 767 k!4915
c 768 k!4916
c 769 k!4917
c 770 k!4918
c 771 k!4919
c 772 k!4920
c 773 k!4921
c 774 k!4922
c 775 k!4923
c 776 k!4924
c 777 k!4925
c 778 k!4926
c 779 k!4927
c 780 k!4928
c 781 k!4929
c 782 k!4930
c 783 k!4931
c 784 k!4932
c 785 k!4933
c 786 k!4934
c 787 k!4935
c 788 k!4936
c 789 k!4937
c 790 k!4938
c 791 k!4939
c 792 k!4940
c 793 k!4941
c 794 k!4942
c 795 k!4943
c 796 k!4944
c 797 k!4945
c 798 k!4946
c 799 k!4947
c 800 k!4948
c 801 k!4949
c 802 k!4950
c 803 k!4951
c 804 k!4952
c 805 k!4953
c 806 k!4954
c 807 k!4955
c 808 k!4956
c 809 k!4957
c 810 k!4958
c 811 k!4959
c 812 k!4960
c 813 k!4961
c 814 k!4962
c 815 k!4963
c 816 k!4964
c 817 k!4965
c 818 k!4966
c 819 k!4967
c 820 k!4968
c 821 k!4969
c 822 k!4970
c 823 k!4971
c 824 k!4972
c 825 k!4973
c 826 k!4974
c 827 k!4975
c 828 k!4976
c 829 k!4977
c 830 k!4978
c 831 k!4979
c 832 k!4980
c 833 k!4981
c 834 k!4982
c 835 k!4983
c 836 k!4984
c 837 k!4985
c 838 k!4986
c 839 k!4987
c 840 k!4988
c 841 k!4989
c 842 k!4990
c 843 k!4991
c 844 k!4992
c 845 k!4993
c 846 k!4994
c 847 k!4995
c 848 k!4996
c 849 k!4997
c 850 k!4998
c 851 k!4999
c 852 k!5000
c 853 k!5001
c 854 k!5002
c 855 k!5003
c 856 k!5004
c 857 k!5005
c 858 k!5006
c 859 k!5007
c 860 k!5008
c 861 k!5009
c 862 k!5010
c 863 k!5011
c 864 k!5012
c 865 k!5013
c 866 k!5014
c 867 k!5015
c 868 k!5016
c 869 k!5017
c 870 k!5018
c 871 k!5019
c 872 k!5020
c 873 k!5021
c 874 k!5022
c 875 k!5023
c 876 k!5024
c 877 k!5025
c 878 k!5026
c 879 k!5027
c 880 k!5028
c 881 k!5029
c 882 k!5030
c 883 k!5031
c 884 k!5032
c 885 k!5033
c 886 k!5034
c 887 k!5035
c 888 k!5036
c 889 k!5037
c 890 k!5038
c 891 k!5039
c 892 k!5040
c 893 k!5041
c 894 k!5042
c 895 k!5043
c 896 k!5044
c 897 k!5045
c 898 k!5046
c 899 k!5047
c 900 k!5048
c 901 k!5049
c 902 k!5050
c 903 k!5051
c 904 k!5052
c 905 k!5053
c 906 k!5054
c 907 k!5055
c 908 k!5056
c 909 k!5057
c 910 k!5058
c 911 k!5059
c 912 k!5060
c 913 k!5061
c 914 k!5062
c 915 k!5063
c 916 k!5064
c 917 k!5065
c 918 k!5066
c 919 k!5067
c 920 k!5068
c 921 k!5069
c 922 k!5070
c 923 k!5071
c 924 k!5072
c 925 k!5073
c 926 k!5074
c 927 k!5075
c 928 k!5076
c 929 k!5077
c 930 k!5078
c 931 k!5079
c 932 k!5080
c 933 k!5081
c 934 k!5082
c 935 k!5083
c 936 k!5084
c 937 k!5085
c 938 k!5086
c 939 k!5087
c 940 k!5088
c 941 k!5089
c 942 k!5090
c 943 k!5091
c 944 k!5092
c 945 k!5093
c 946 k!5094
c 947 k!5095
c 948 k!5096
c 949 k!5097
c 950 k!5098
c 951 k!5099
c 952 k!5100
c 953 k!5101
c 954 k!5102
c 955 k!5103
c 956 k!5104
c 957 k!5105
c 958 k!5106
c 959 k!5107
c 960 k!5108
c 961 k!5109
c 962 k!5110
c 963 k!5111
c 964 k!5112
c 965 k!5113
c 966 k!5114
c 967 k!5115
c 968 k!5116
c 969 k!5117
c 970 k!5118
c 971 k!5119
c 972 k!5120
c 973 k!5121
c 974 k!5122
c 975 k!5123
c 976 k!5124
c 977 k!5125
c 978 k!5126
c 979 k!5127
c 980 k!5128
c 981 k!5129
c 982 k!5130
c 983 k!5131
c 984 k!5132
c 985 k!5133
c 986 k!5134
c 987 k!5135
c 988 k!5136
c 989 k!5137
c 990 k!5138
c 991 k!5139
c 992 k!5140
c 993 k!5141
c 994 k!5142
c 995 k!5143
c 996 k!5144
c 997 k!5145
c 998 k!5146
c 999 k!5147
c 1000 k!5148
c 1001 k!5149
c 1002 k!5150
c 1003 k!5151
c 1004 k!5152
c 1005 k!5153
c 1006 k!5154
c 1007 k!5155
c 1008 k!5156
c 1009 k!5157
c 1010 k!5158
c 1011 k!5159
c 1012 k!5160
c 1013 k!5161
c 1014 k!5162
c 1015 k!5163
c 1016 k!5164
c 1017 k!5165
c 1018 k!5166
c 1019 k!5167
c 1020 k!5168
c 1021 k!5169
c 1022 k!5170
c 1023 k!5171
c 1024 k!5172
c 1025 k!5173
c 1026 k!5174
c 1027 k!5175
c 1028 k!5176
c 1029 k!5177
c 1030 k!5178
c 1031 k!5179
c 1032 k!5180
c 1033 k!5181
c 1034 k!5182
c 1035 k!5183
c 1036 k!5184
c 1037 k!5185
c 1038 k!5186
c 1039 k!5187
c 1040 k!5188
c 1041 k!5189
c 1042 k!5190
c 1043 k!5191
c 1044 k!5192
c 1045 k!5193
c 1046 k!5194
c 1047 k!5195
c 1048 k!5196
c 1049 k!5197
c 1050 k!5198
c 1051 k!5199
c 1052 k!5200
c 1053 k!5201
c 1054 k!5202
c 1055 k!5203
c 1056 k!5204
c 1057 k!5205
c 1058 k!5206
c 1059 k!5207
c 1060 k!5208
c 1061 k!5209
c 1062 k!5210
c 1063 k!5211
c 1064 k!5212
c 1065 k!5213
c 1066 k!5214
c 1067 k!5215
c 1068 k!5216
c 1069 k!5217
c 1070 k!5218
c 1071 k!5219
c 1072 k!5220
c 1073 k!5221
c 1074 k!5222
c 1075 k!5223
c 1076 k!5224
c 1077 k!5225
c 1078 k!5226
c 1079 k!5227
c 1080 k!5228
c 1081 k!5229
c 1082 k!5230
c 1083 k!5231
c 1084 k!5232
c 1085 k!5233
c 1086 k!5234
c 1087 k!5235
c 1088 k!5236
c 1089 k!5237
c 1090 k!5238
c 1091 k!5239
c 1092 k!5240
c 1093 k!5241
c 1094 k!5242
c 1095 k!5243
c 1096 k!5244
c 1097 k!5245
c 1098 k!5246
c 1099 k!5247
c 1100 k!5248
c 1101 k!5249
c 1102 k!5250
c 1103 k!5251
c 1104 k!5252
c 1105 k!5253
c 1106 k!5254
c 1107 k!5255
c 1108 k!5256
c 1109 k!5257
c 1110 k!5258
c 1111 k!5259
c 1112 k!5260
c 1113 k!5261
c 1114 k!5262
c 1115 k!5263
c 1116 k!5264
c 1117 k!5265
c 1118 k!5266
c 1119 k!5267
c 1120 k!5268
c 1121 k!5269
c 1122 k!5270
c 1123 k!5271
c 1124 k!5272
c 1125 k!5273
c 1126 k!5274
c 1127 k!5275
c 1128 k!5276
c 1129 k!5277
c 1130 k!5278
c 1131 k!5279
c 1132 k!5280
c 1133 k!5281
c 1134 k!5282
c 1135 k!5283
c 1136 k!5284
c 1137 k!5285
c 1138 k!5286
c 1139 k!5287
c 1140 k!5288
c 1141 k!5289
c 1142 k!5290
c 1143 k!5291
c 1144 k!5292
c 1145 k!5293
c 1146 k!5294
c 1147 k!5295
c 1148 k!5296
c 1149 k!5297
c 1150 k!5298
c 1151 k!5299
c 1152 k!5300
c 1153 k!5301
c 1154 k!5302
c 1155 k!5303
c 1156 k!5304
c 1157 k!5305
c 1158 k!5306
c 1159 k!5307
c 1160 k!5308
c 1161 k!5309
c 1162 k!5310
c 1163 k!5311
c 1164 k!5312
c 1165 k!5313
c 1166 k!5314
c 1167 k!5315
c 1168 k!5316
c 1169 k!5317
c 1170 k!5318
c 1171 k!5319
c 1172 k!5320
c 1173 k!5321
c 1174 k!5322
c 1175 k!5323
c 1176 k!5324
c 1177 k!5325
c 1178 k!5326
c 1179 k!5327
c 1180 k!5328
c 1181 k!5329
c 1182 k!5330
c 1183 k!5331
c 1184 k!5332
c 1185 k!5333
c 1186 k!5334
c 1187 k!5335
c 1188 k!5336
c 1189 k!5337
c 1190 k!5338
c 1191 k!5339
c 1192 k!5340
c 1193 k!5341
c 1194 k!5342
c 1195 k!5343
c 1196 k!5344
c 1197 k!5345
c 1198 k!5346
c 1199 k!5347
c 1200 k!5348
c 1201 k!5349
c 1202 k!5350
c 1203 k!5351
c 1204 k!5352
c 1205 k!5353
c 1206 k!5354
c 1207 k!5355
c 1208 k!5356
c 1209 k!5357
c 1210 k!5358
c 1211 k!5359
c 1212 k!5360
c 1213 k!5361
c 1214 k!5362
c 1215 k!5363
c 1216 k!5364
c 1217 k!5365
c 1218 k!5366
c 1219 k!5367
c 1220 k!5368
c 1221 k!5369
c 1222 k!5370
c 1223 k!5371
c 1224 k!5372
c 1225 k!5373
c 1226 k!5374
c 1227 k!5375
c 1228 k!5376
c 1229 k!5377
c 1230 k!5378
c 1231 k!5379
c 1232 k!5380
c 1233 k!5381
c 1234 k!5382
c 1235 k!5383
c 1236 k!5384
c 1237 k!5385
c 1238 k!5386
c 1239 k!5387
c 1240 k!5388
c 1241 k!5389
c 1242 k!5390
c 1243 k!5391
c 1244 k!5392
c 1245 k!5393
c 1246 k!5394
c 1247 k!5395
c 1248 k!5396
c 1249 k!5397
c 1250 k!5398
c 1251 k!5399
c 1252 k!5400
c 1253 k!5401
c 1254 k!5402
c 1255 k!5403
c 1256 k!5404
c 1257 k!5405
c 1258 k!5406
c 1259 k!5407
c 1260 k!5408
c 1261 k!5409
c 1262 k!5410
c 1263 k!5411
c 1264 k!5412
c 1265 k!5413
c 1266 k!5414
c 1267 k!5415
c 1268 k!5416
c 1269 k!5417
c 1270 k!5418
c 1271 k!5419
c 1272 k!5420
c 1273 k!5421
c 1274 k!5422
c 1275 k!5423
c 1276 k!5424
c 1277 k!5425
c 1278 k!5426
c 1279 k!5427
c 1280 k!5428
c 1281 k!5429
c 1282 k!5430
c 1283 k!5431
c 1284 k!5432
c 1285 k!5433
c 1286 k!5434
c 1287 k!5435
c 1288 k!5436
c 1289 k!5437
c 1290 k!5438
c 1291 k!5439
c 1292 k!5440
c 1293 k!5441
c 1294 k!5442
c 1295 k!5443
c 1296 k!5444
c 1297 k!5445
c 1298 k!5446
c 1299 k!5447
c 1300 k!5448
c 1301 k!5449
c 1302 k!5450
c 1303 k!5451
c 1304 k!5452
c 1305 k!5453
c 1306 k!5454
c 1307 k!5455
c 1308 k!5456
c 1309 k!5457
c 1310 k!5458
c 1311 k!5459
c 1312 k!5460
c 1313 k!5461
c 1314 k!5462
c 1315 k!5463
c 1316 k!5464
c 1317 k!5465
c 1318 k!5466
c 1319 k!5467
c 1320 k!5468
c 1321 k!5469
c 1322 k!5470
c 1323 k!5471
c 1324 k!5472
c 1325 k!5473
c 1326 k!5474
c 1327 k!5475
c 1328 k!5476
c 1329 k!5477
c 1330 k!5478
c 1331 k!5479
c 1332 k!5480
c 1333 k!5481
c 1334 k!5482
c 1335 k!5483
c 1336 k!5484
c 1337 k!5485
c 1338 k!5486
c 1339 k!5487
c 1340 k!5488
c 1341 k!5489
c 1342 k!5490
c 1343 k!5491
c 1344 k!5492
c 1345 k!5493
c 1346 k!5494
c 1347 k!5495
c 1348 k!5496
c 1349 k!5497
c 1350 k!5498
c 1351 k!5499
c 1352 k!5500
c 1353 k!5501
c 1354 k!5502
c 1355 k!5503
c 1356 k!5504
c 1357 k!5505
c 1358 k!5506
c 1359 k!5507
c 1360 k!5508
c 1361 k!5509
c 1362 k!5510
c 1363 k!5511
c 1364 k!5512
c 1365 k!5513
c 1366 k!5514
c 1367 k!5515
c 1368 k!5516
c 1369 k!5517
c 1370 k!5518
c 1371 k!5519
c 1372 k!5520
c 1373 k!5521
c 1374 k!5522
c 1375 k!5523
c 1376 k!5524
c 1377 k!5525
c 1378 k!5526
c 1379 k!5527
c 1380 k!5528
c 1381 k!5529
c 1382 k!5530
c 1383 k!5531
c 1384 k!5532
c 1385 k!5533
c 1386 k!5534
c 1387 k!5535
c 1388 k!5536
c 1389 k!5537
c 1390 k!5538
c 1391 k!5539
c 1392 k!5540
c 1393 k!5541
c 1394 k!5542
c 1395 k!5543
c 1396 k!5544
c 1397 k!5545
c 1398 k!5546
c 1399 k!5547
c 1400 k!5548
c 1401 k!5549
c 1402 k!5550
c 1403 k!5551
c 1404 k!5552
c 1405 k!5553
c 1406 k!5554
c 1407 k!5555
c 1408 k!5556
c 1409 k!5557
c 1410 k!5558
c 1411 k!5559
c 1412 k!5560
c 1413 k!5561
c 1414 k!5562
c 1415 k!5563
c 1416 k!5564
c 1417 k!5565
c 1418 k!5566
c 1419 k!5567
c 1420 k!5568
c 1421 k!5569
c 1422 k!5570
c 1423 k!5571
c 1424 k!5572
c 1425 k!5573
c 1426 k!5574
c 1427 k!5575
c 1428 k!5576
c 1429 k!5577
c 1430 k!5578
c 1431 k!5579
c 1432 k!5580
c 1433 k!5581
c 1434 k!5582
c 1435 k!5583
c 1436 k!5584
c 1437 k!5585
c 1438 k!5586
c 1439 k!5587
c 1440 k!5588
c 1441 k!5589
c 1442 k!5590
c 1443 k!5591
c 1444 k!5592
c 1445 k!5593
c 1446 k!5594
c 1447 k!5595
c 1448 k!5596
c 1449 k!5597
c 1450 k!5598
c 1451 k!5599
c 1452 k!5600
c 1453 k!5601
c 1454 k!5602
c 1455 k!5603
c 1456 k!5604
c 1457 k!5605
c 1458 k!5606
c 1459 k!5607
c 1460 k!5608
c 1461 k!5609
c 1462 k!5610
c 1463 k!5611
c 1464 k!5612
c 1465 k!5613
c 1466 k!5614
c 1467 k!5615
c 1468 k!5616
c 1469 k!5617
c 1470 k!5618
c 1471 k!5619
c 1472 k!5620
c 1473 k!5621
c 1474 k!5622
c 1475 k!5623
c 1476 k!5624
c 1477 k!5625
c 1478 k!5626
c 1479 k!5627
c 1480 k!5628
c 1481 k!5629
c 1482 k!5630
c 1483 k!5631
c 1484 k!5632
c 1485 k!5633
c 1486 k!5634
c 1487 k!5635
c 1488 k!5636
c 1489 k!5637
c 1490 k!5638
c 1491 k!5639
c 1492 k!5640
c 1493 k!5641
c 1494 k!5642
c 1495 k!5643
c 1496 k!5644
c 1497 k!5645
c 1498 k!5646
c 1499 k!5647
c 1500 k!5648
c 1501 k!5649
c 1502 k!5650
c 1503 k!5651
c 1504 k!5652
c 1505 k!5653
c 1506 k!5654
c 1507 k!5655
c 1508 k!5656
c 1509 k!5657
c 1510 k!5658
c 1511 k!5659
c 1512 k!5660
c 1513 k!5661
c 1514 k!5662
c 1515 k!5663
c 1516 k!5664
c 1517 k!5665
c 1518 k!5666
c 1519 k!5667
c 1520 k!5668
c 1521 k!5669
c 1522 k!5670
c 1523 k!5671
c 1524 k!5672
c 1525 k!5673
c 1526 k!5674
c 1527 k!5675
c 1528 k!5676
c 1529 k!5677
c 1530 k!5678
c 1531 k!5679
c 1532 k!5680
c 1533 k!5681
c 1534 k!5682
c 1535 k!5683
c 1536 k!5684
c 1537 k!5685
c 1538 k!5686
c 1539 k!5687
c 1540 k!5688
c 1541 k!5689
c 1542 k!5690
c 1543 k!5691
c 1544 k!5692
c 1545 k!5693
c 1546 k!5694
c 1547 k!5695
c 1548 k!5696
c 1549 k!5697
c 1550 k!5698
c 1551 k!5699
c 1552 k!5700
c 1553 k!5701
c 1554 k!5702
c 1555 k!5703
c 1556 k!5704
c 1557 k!5705
c 1558 k!5706
c 1559 k!5707
c 1560 k!5708
c 1561 k!5709
c 1562 k!5710
c 1563 k!5711
c 1564 k!5712
c 1565 k!5713
c 1566 k!5714
c 1567 k!5715
c 1568 k!5716
c 1569 k!5717
c 1570 k!5718
c 1571 k!5719
c 1572 k!5720
c 1573 k!5721
c 1574 k!5722
c 1575 k!5723
c 1576 k!5724
c 1577 k!5725
c 1578 k!5726
c 1579 k!5727
c 1580 k!5728
c 1581 k!5729
c 1582 k!5730
c 1583 k!5731
c 1584 k!5732
c 1585 k!5733
c 1586 k!5734
c 1587 k!5735
c 1588 k!5736
c 1589 k!5737
c 1590 k!5738
c 1591 k!5739
c 1592 k!5740
c 1593 k!5741
c 1594 k!5742
c 1595 k!5743
c 1596 k!5744
c 1597 k!5745
c 1598 k!5746
c 1599 k!5747
c 1600 k!5748
c 1601 k!5749
c 1602 k!5750
c 1603 k!5751
c 1604 k!5752
c 1605 k!5753
c 1606 k!5754
c 1607 k!5755
c 1608 k!5756
c 1609 k!5757
c 1610 k!5758
c 1611 k!5759
c 1612 k!5760
c 1613 k!5761
c 1614 k!5762
c 1615 k!5763
c 1616 k!5764
c 1617 k!5765
c 1618 k!5766
c 1619 k!5767
c 1620 k!5768
c 1621 k!5769
c 1622 k!5770
c 1623 k!5771
c 1624 k!5772
c 1625 k!5773
c 1626 k!5774
c 1627 k!5775
c 1628 k!5776
c 1629 k!5777
c 1630 k!5778
c 1631 k!5779
c 1632 k!5780
c 1633 k!5781
c 1634 k!5782
c 1635 k!5783
c 1636 k!5784
c 1637 k!5785
c 1638 k!5786
c 1639 k!5787
c 1640 k!5788
c 1641 k!5789
c 1642 k!5790
c 1643 k!5791
c 1644 k!5792
c 1645 k!5793
c 1646 k!5794
c 1647 k!5795
c 1648 k!5796
c 1649 k!5797
c 1650 k!5798
c 1651 k!5799
c 1652 k!5800
c 1653 k!5801
c 1654 k!5802
c 1655 k!5803
c 1656 k!5804
c 1657 k!5805
c 1658 k!5806
c 1659 k!5807
c 1660 k!5808
c 1661 k!5809
c 1662 k!5810
c 1663 k!5811
c 1664 k!5812
c 1665 k!5813
c 1666 k!5814
c 1667 k!5815
c 1668 k!5816
c 1669 k!5817
c 1670 k!5818
c 1671 k!5819
c 1672 k!5820
c 1673 k!5821
c 1674 k!5822
c 1675 k!5823
c 1676 k!5824
c 1677 k!5825
c 1678 k!5826
c 1679 k!5827
c 1680 k!5828
c 1681 k!5829
c 1682 k!5830
c 1683 k!5831
c 1684 k!5832
c 1685 k!5833
c 1686 k!5834
c 1687 k!5835
c 1688 k!5836
c 1689 k!5837
c 1690 k!5838
c 1691 k!5839
c 1692 k!5840
c 1693 k!5841
c 1694 k!5842
c 1695 k!5843
c 1696 k!5844
c 1697 k!5845
c 1698 k!5846
c 1699 k!5847
c 1700 k!5848
c 1701 k!5849
c 1702 k!5850
c 1703 k!5851
c 1704 k!5852
c 1705 k!5853
c 1706 k!5854
c 1707 k!5855
c 1708 k!5856
c 1709 k!5857
c 1710 k!5858
c 1711 k!5859
c 1712 k!5860
c 1713 k!5861
c 1714 k!5862
c 1715 k!5863
c 1716 k!5864
c 1717 k!5865
c 1718 k!5866
c 1719 k!5867
c 1720 k!5868
c 1721 k!5869
c 1722 k!5870
c 1723 k!5871
c 1724 k!5872
c 1725 k!5873
c 1726 k!5874
c 1727 k!5875
c 1728 k!5876
c 1729 k!5877
c 1730 k!5878
c 1731 k!5879
c 1732 k!5880
c 1733 k!5881
c 1734 k!5882
c 1735 k!5883
c 1736 k!5884
c 1737 k!5885
c 1738 k!5886
c 1739 k!5887
c 1740 k!5888
c 1741 k!5889
c 1742 k!5890
c 1743 k!5891
c 1744 k!5892
c 1745 k!5893
c 1746 k!5894
c 1747 k!5895
c 1748 k!5896
c 1749 k!5897
c 1750 k!5898
c 1751 k!5899
c 1752 k!5900
c 1753 k!5901
c 1754 k!5902
c 1755 k!5903
c 1756 k!5904
c 1757 k!5905
c 1758 k!5906
c 1759 k!5907
c 1760 k!5908
c 1761 k!5909
c 1762 k!5910
c 1763 k!5911
c 1764 k!5912
c 1765 k!5913
c 1766 k!5914
c 1767 k!5915
c 1768 k!5916
c 1769 k!5917
c 1770 k!5918
c 1771 k!5919
c 1772 k!5920
c 1773 k!5921
c 1774 k!5922
c 1775 k!5923
c 1776 k!5924
c 1777 k!5925
c 1778 k!5926
c 1779 k!5927
c 1780 k!5928
c 1781 k!5929
c 1782 k!5930
c 1783 k!5931
c 1784 k!5932
c 1785 k!5933
c 1786 k!5934
c 1787 k!5935
c 1788 k!5936
c 1789 k!5937
c 1790 k!5938
c 1791 k!5939
c 1792 k!5940
c 1793 k!5941
c 1794 k!5942
c 1795 k!5943
c 1796 k!5944
c 1797 k!5945
c 1798 k!5946
c 1799 k!5947
c 1800 k!5948
c 1801 k!5949
c 1802 k!5950
c 1803 k!5951
c 1804 k!5952
c 1805 k!5953
c 1806 k!5954
c 1807 k!5955
c 1808 k!5956
c 1809 k!5957
c 1810 k!5958
c 1811 k!5959
c 1812 k!5960
c 1813 k!5961
c 1814 k!5962
c 1815 k!5963
c 1816 k!5964
c 1817 k!5965
c 1818 k!5966
c 1819 k!5967
c 1820 k!5968
c 1821 k!5969
c 1822 k!5970
c 1823 k!5971
c 1824 k!5972
c 1825 k!5973
c 1826 k!5974
c 1827 k!5975
c 1828 k!5976
c 1829 k!5977
c 1830 k!5978
c 1831 k!5979
c 1832 k!5980
c 1833 k!5981
c 1834 k!5982
c 1835 k!5983
c 1836 k!5984
c 1837 k!5985
c 1838 k!5986
c 1839 k!5987
c 1840 k!5988
c 1841 k!5989
c 1842 k!5990
c 1843 k!5991
c 1844 k!5992
c 1845 k!5993
c 1846 k!5994
c 1847 k!5995
c 1848 k!5996
c 1849 k!5997
c 1850 k!5998
c 1851 k!5999
c 1852 k!6000
c 1853 k!6001
c 1854 k!6002
c 1855 k!6003
c 1856 k!6004
c 1857 k!6005
c 1858 k!6006
c 1859 k!6007
c 1860 k!6008
c 1861 k!6009
c 1862 k!6010
c 1863 k!6011
c 1864 k!6012
c 1865 k!6013
c 1866 k!6014
c 1867 k!6015
c 1868 k!6016
c 1869 k!6017
c 1870 k!6018
c 1871 k!6019
c 1872 k!6020
c 1873 k!6021
c 1874 k!6022
c 1875 k!6023
c 1876 k!6024
c 1877 k!6025
c 1878 k!6026
c 1879 k!6027
c 1880 k!6028
c 1881 k!6029
c 1882 k!6030
c 1883 k!6031
c 1884 k!6032
c 1885 k!6033
c 1886 k!6034
c 1887 k!6035
c 1888 k!6036
c 1889 k!6037
c 1890 k!6038
c 1891 k!6039
c 1892 k!6040
c 1893 k!6041
c 1894 k!6042
c 1895 k!6043
c 1896 k!6044
c 1897 k!6045
c 1898 k!6046
c 1899 k!6047
c 1900 k!6048
c 1901 k!6049
c 1902 k!6050
c 1903 k!6051
c 1904 k!6052
c 1905 k!6053
c 1906 k!6054
c 1907 k!6055
c 1908 k!6056
c 1909 k!6057
c 1910 k!6058
c 1911 k!6059
c 1912 k!6060
c 1913 k!6061
c 1914 k!6062
c 1915 k!6063
c 1916 k!6064
c 1917 k!6065
c 1918 k!6066
c 1919 k!6067
c 1920 k!6068
c 1921 k!6069
c 1922 k!6070
c 1923 k!6071
c 1924 k!6072
c 1925 k!6073
c 1926 k!6074
c 1927 k!6075
c 1928 k!6076
c 1929 k!6077
c 1930 k!6078
c 1931 k!6079
c 1932 k!6080
c 1933 k!6081
c 1934 k!6082
c 1935 k!6083
c 1936 k!6084
c 1937 k!6085
c 1938 k!6086
c 1939 k!6087
c 1940 k!6088
c 1941 k!6089
c 1942 k!6090
c 1943 k!6091
c 1944 k!6092
c 1945 k!6093
c 1946 k!6094
c 1947 k!6095
c 1948 k!6096
c 1949 k!6097
c 1950 k!6098
c 1951 k!6099
c 1952 k!6100
c 1953 k!6101
c 1954 k!6102
c 1955 k!6103
c 1956 k!6104
c 1957 k!6105
c 1958 k!6106
c 1959 k!6107
c 1960 k!6108
c 1961 k!6109
c 1962 k!6110
c 1963 k!6111
c 1964 k!6112
c 1965 k!6113
c 1966 k!6114
c 1967 k!6115
c 1968 k!6116
c 1969 k!6117
c 1970 k!6118
c 1971 k!6119
c 1972 k!6120
c 1973 k!6121
c 1974 k!6122
c 1975 k!6123
c 1976 k!6124
c 1977 k!6125
c 1978 k!6126
c 1979 k!6127
c 1980 k!6128
c 1981 k!6129
c 1982 k!6130
c 1983 k!6131
c 1984 k!6132
c 1985 k!6133
c 1986 k!6134
c 1987 k!6135
c 1988 k!6136
c 1989 k!6137
c 1990 k!6138
c 1991 k!6139
c 1992 k!6140
c 1993 k!6141
c 1994 k!6142
c 1995 k!6143
c 1996 k!6144
c 1997 k!6145
c 1998 k!6146
c 1999 k!6147
c 2000 k!6148
c 2001 k!6149
c 2002 k!6150
c 2003 k!6151
c 2004 k!6152
c 2005 k!6153
c 2006 k!6154
c 2007 k!6155
c 2008 k!6156
c 2009 k!6157
c 2010 k!6158
c 2011 k!6159
c 2012 k!6160
c 2013 k!6161
c 2014 k!6162
c 2015 k!6163
c 2016 k!6164
c 2017 k!6165
c 2018 k!6166
c 2019 k!6167
c 2020 k!6168
c 2021 k!6169
c 2022 k!6170
c 2023 k!6171
c 2024 k!6172
c 2025 k!6173
c 2026 k!6174
c 2027 k!6175
c 2028 k!6176
c 2029 k!6177
c 2030 k!6178
c 2031 k!6179
c 2032 k!6180
c 2033 k!6181
c 2034 k!6182
c 2035 k!6183
c 2036 k!6184
c 2037 k!6185
c 2038 k!6186
c 2039 k!6187
c 2040 k!6188
c 2041 k!6189
c 2042 k!6190
c 2043 k!6191
c 2044 k!6192
c 2045 k!6193
c 2046 k!6194
c 2047 k!6195
c 2048 k!6196
c 2049 k!6197
c 2050 k!6198
c 2051 k!6199
c 2052 k!6200
c 2053 k!6201
c 2054 k!6202
c 2055 k!6203
c 2056 k!6204
c 2057 k!6205
c 2058 k!6206
c 2059 k!6207
c 2060 k!6208
c 2061 k!6209
c 2062 k!6210
c 2063 k!6211
c 2064 k!6212
c 2065 k!6213
c 2066 k!6214
c 2067 k!6215
c 2068 k!6216
c 2069 k!6217
c 2070 k!6218
c 2071 k!6219
c 2072 k!6220
c 2073 k!6221
c 2074 k!6222
c 2075 k!6223
c 2076 k!6224
c 2077 k!6225
c 2078 k!6226
c 2079 k!6227
c 2080 k!6228
c 2081 k!6229
c 2082 k!6230
c 2083 k!6231
c 2084 k!6232
c 2085 k!6233
c 2086 k!6234
c 2087 k!6235
c 2088 k!6236
c 2089 k!6237
c 2090 k!6238
c 2091 k!6239
c 2092 k!6240
c 2093 k!6241
c 2094 k!6242
c 2095 k!6243
c 2096 k!6244
c 2097 k!6245
c 2098 k!6246
c 2099 k!6247
c 2100 k!6248
c 2101 k!6249
c 2102 k!6250
c 2103 k!6251
c 2104 k!6252
c 2105 k!6253
c 2106 k!6254
c 2107 k!6255
c 2108 k!6256
c 2109 k!6257
c 2110 k!6258
c 2111 k!6259
c 2112 k!6260
c 2113 k!6261
c 2114 k!6262
c 2115 k!6263
c 2116 k!6264
c 2117 k!6265
c 2118 k!6266
c 2119 k!6267
c 2120 k!6268
c 2121 k!6269
c 2122 k!6270
c 2123 k!6271
c 2124 k!6272
c 2125 k!6273
c 2126 k!6274
c 2127 k!6275
c 2128 k!6276
c 2129 k!6277
c 2130 k!6278
c 2131 k!6279
c 2132 k!6280
c 2133 k!6281
c 2134 k!6282
c 2135 k!6283
c 2136 k!6284
c 2137 k!6285
c 2138 k!6286
c 2139 k!6287
c 2140 k!6288
c 2141 k!6289
c 2142 k!6290
c 2143 k!6291
c 2144 k!6292
c 2145 k!6293
c 2146 k!6294
c 2147 k!6295
c 2148 k!6296
c 2149 k!6297
c 2150 k!6298
c 2151 k!6299
c 2152 k!6300
c 2153 k!6301
c 2154 k!6302
c 2155 k!6303
c 2156 k!6304
c 2157 k!6305
c 2158 k!6306
c 2159 k!6307
c 2160 k!6308
c 2161 k!6309
c 2162 k!6310
c 2163 k!6311
c 2164 k!6312
c 2165 k!6313
c 2166 k!6314
c 2167 k!6315
c 2168 k!6316
c 2169 k!6317
c 2170 k!6318
c 2171 k!6319
c 2172 k!6320
c 2173 k!6321
c 2174 k!6322
c 2175 k!6323
c 2176 k!6324
c 2177 k!6325
c 2178 k!6326
c 2179 k!6327
c 2180 k!6328
c 2181 k!6329
c 2182 k!6330
c 2183 k!6331
c 2184 k!6332
c 2185 k!6333
c 2186 k!6334
c 2187 k!6335
c 2188 k!6336
c 2189 k!6337
c 2190 k!6338
c 2191 k!6339
c 2192 k!6340
c 2193 k!6341
c 2194 k!6342
c 2195 k!6343
c 2196 k!6344
c 2197 k!6345
c 2198 k!6346
c 2199 k!6347
c 2200 k!6348
c 2201 k!6349
c 2202 k!6350
c 2203 k!6351
c 2204 k!6352
c 2205 k!6353
c 2206 k!6354
c 2207 k!6355
c 2208 k!6356
c 2209 k!6357
c 2210 k!6358
c 2211 k!6359
c 2212 k!6360
c 2213 k!6361
c 2214 k!6362
c 2215 k!6363
c 2216 k!6364
c 2217 k!6365
c 2218 k!6366
c 2219 k!6367
c 2220 k!6368
c 2221 k!6369
c 2222 k!6370
c 2223 k!6371
c 2224 k!6372
c 2225 k!6373
c 2226 k!6374
c 2227 k!6375
c 2228 k!6376
c 2229 k!6377
c 2230 k!6378
c 2231 k!6379
c 2232 k!6380
c 2233 k!6381
c 2234 k!6382
c 2235 k!6383
c 2236 k!6384
c 2237 k!6385
c 2238 k!6386
c 2239 k!6387
c 2240 k!6388
c 2241 k!6389
c 2242 k!6390
c 2243 k!6391
c 2244 k!6392
c 2245 k!6393
c 2246 k!6394
c 2247 k!6395
c 2248 k!6396
c 2249 k!6397
c 2250 k!6398
c 2251 k!6399
c 2252 k!6400
c 2253 k!6401
c 2254 k!6402
c 2255 k!6403
c 2256 k!6404
c 2257 k!6405
c 2258 k!6406
c 2259 k!6407
c 2260 k!6408
c 2261 k!6409
c 2262 k!6410
c 2263 k!6411
c 2264 k!6412
c 2265 k!6413
c 2266 k!6414
c 2267 k!6415
c 2268 k!6416
c 2269 k!6417
c 2270 k!6418
c 2271 k!6419
c 2272 k!6420
c 2273 k!6421
c 2274 k!6422
c 2275 k!6423
c 2276 k!6424
c 2277 k!6425
c 2278 k!6426
c 2279 k!6427
c 2280 k!6428
c 2281 k!6429
c 2282 k!6430
c 2283 k!6431
c 2284 k!6432
c 2285 k!6433
c 2286 k!6434
c 2287 k!6435
c 2288 k!6436
c 2289 k!6437
c 2290 k!6438
c 2291 k!6439
c 2292 k!6440
c 2293 k!6441
c 2294 k!6442
c 2295 k!6443
c 2296 k!6444
c 2297 k!6445
c 2298 k!6446
c 2299 k!6447
c 2300 k!6448
c 2301 k!6449
c 2302 k!6450
c 2303 k!6451
c 2304 k!6452
c 2305 k!6453
c 2306 k!6454
c 2307 k!6455
c 2308 k!6456
c 2309 k!6457
c 2310 k!6458
c 2311 k!6459
c 2312 k!6460
c 2313 k!6461
c 2314 k!6462
c 2315 k!6463
c 2316 k!6464
c 2317 k!6465
c 2318 k!6466
c 2319 k!6467
c 2320 k!6468
c 2321 k!6469
c 2322 k!6470
c 2323 k!6471
c 2324 k!6472
c 2325 k!6473
c 2326 k!6474
c 2327 k!6475
c 2328 k!6476
c 2329 k!6477
c 2330 k!6478
c 2331 k!6479
c 2332 k!6480
c 2333 k!6481
c 2334 k!6482
c 2335 k!6483
c 2336 k!6484
c 2337 k!6485
c 2338 k!6486
c 2339 k!6487
c 2340 k!6488
c 2341 k!6489
c 2342 k!6490
c 2343 k!6491
c 2344 k!6492
c 2345 k!6493
c 2346 k!6494
c 2347 k!6495
c 2348 k!6496
c 2349 k!6497
c 2350 k!6498
c 2351 k!6499
c 2352 k!6500
c 2353 k!6501
c 2354 k!6502
c 2355 k!6503
c 2356 k!6504
c 2357 k!6505
c 2358 k!6506
c 2359 k!6507
c 2360 k!6508
c 2361 k!6509
c 2362 k!6510
c 2363 k!6511
c 2364 k!6512
c 2365 k!6513
c 2366 k!6514
c 2367 k!6515
c 2368 k!6516
c 2369 k!6517
c 2370 k!6518
c 2371 k!6519
c 2372 k!6520
c 2373 k!6521
c 2374 k!6522
c 2375 k!6523
c 2376 k!6524
c 2377 k!6525
c 2378 k!6526
c 2379 k!6527
c 2380 k!6528
c 2381 k!6529
c 2382 k!6530
c 2383 k!6531
c 2384 k!6532
c 2385 k!6533
c 2386 k!6534
c 2387 k!6535
c 2388 k!6536
c 2389 k!6537
c 2390 k!6538
c 2391 k!6539
c 2392 k!6540
c 2393 k!6541
c 2394 k!6542
c 2395 k!6543
c 2396 k!6544
c 2397 k!6545
c 2398 k!6546
c 2399 k!6547
c 2400 k!6548
c 2401 k!6549
c 2402 k!6550
c 2403 k!6551
c 2404 k!6552
c 2405 k!6553
c 2406 k!6554
c 2407 k!6555
c 2408 k!6556
c 2409 k!6557
c 2410 k!6558
c 2411 k!6559
c 2412 k!6560
c 2413 k!6561
c 2414 k!6562
c 2415 k!6563
c 2416 k!6564
c 2417 k!6565
c 2418 k!6566
c 2419 k!6567
c 2420 k!6568
c 2421 k!6569
c 2422 k!6570
c 2423 k!6571
c 2424 k!6572
c 2425 k!6573
c 2426 k!6574
c 2427 k!6575
c 2428 k!6576
c 2429 k!6577
c 2430 k!6578
c 2431 k!6579
c 2432 k!6580
c 2433 k!6581
c 2434 k!6582
c 2435 k!6583
c 2436 k!6584
c 2437 k!6585
c 2438 k!6586
c 2439 k!6587
c 2440 k!6588
c 2441 k!6589
c 2442 k!6590
c 2443 k!6591
c 2444 k!6592
c 2445 k!6593
c 2446 k!6594
c 2447 k!6595
c 2448 k!6596
c 2449 k!6597
c 2450 k!6598
c 2451 k!6599
c 2452 k!6600
c 2453 k!6601
c 2454 k!6602
c 2455 k!6603
c 2456 k!6604
c 2457 k!6605
c 2458 k!6606
c 2459 k!6607
c 2460 k!6608
c 2461 k!6609
c 2462 k!6610
c 2463 k!6611
c 2464 k!6612
c 2465 k!6613
c 2466 k!6614
c 2467 k!6615
c 2468 k!6616
c 2469 k!6617
c 2470 k!6618
c 2471 k!6619
c 2472 k!6620
c 2473 k!6621
c 2474 k!6622
c 2475 k!6623
c 2476 k!6624
c 2477 k!6625
c 2478 k!6626
c 2479 k!6627
c 2480 k!6628
c 2481 k!6629
c 2482 k!6630
c 2483 k!6631
c 2484 k!6632
c 2485 k!6633
c 2486 k!6634
c 2487 k!6635
c 2488 k!6636
c 2489 k!6637
c 2490 k!6638
c 2491 k!6639
c 2492 k!6640
c 2493 k!6641
c 2494 k!6642
c 2495 k!6643
c 2496 k!6644
c 2497 k!6645
c 2498 k!6646
c 2499 k!6647
c 2500 k!6648
c 2501 k!6649
c 2502 k!6650
c 2503 k!6651
c 2504 k!6652
c 2505 k!6653
c 2506 k!6654
c 2507 k!6655
c 2508 k!6656
c 2509 k!6657
c 2510 k!6658
c 2511 k!6659
c 2512 k!6660
c 2513 k!6661
c 2514 k!6662
c 2515 k!6663
c 2516 k!6664
c 2517 k!6665
c 2518 k!6666
c 2519 k!6667
c 2520 k!6668
c 2521 k!6669
c 2522 k!6670
c 2523 k!6671
c 2524 k!6672
c 2525 k!6673
c 2526 k!6674
c 2527 k!6675
c 2528 k!6676
c 2529 k!6677
c 2530 k!6678
c 2531 k!6679
c 2532 k!6680
c 2533 k!6681
c 2534 k!6682
c 2535 k!6683
c 2536 k!6684
c 2537 k!6685
c 2538 k!6686
c 2539 k!6687
c 2540 k!6688
c 2541 k!6689
c 2542 k!6690
c 2543 k!6691
c 2544 k!6692
c 2545 k!6693
c 2546 k!6694
c 2547 k!6695
c 2548 k!6696
c 2549 k!6697
c 2550 k!6698
c 2551 k!6699
c 2552 k!6700
c 2553 k!6701
c 2554 k!6702
c 2555 k!6703
c 2556 k!6704
c 2557 k!6705
c 2558 k!6706
c 2559 k!6707
c 2560 k!6708
c 2561 k!6709
c 2562 k!6710
c 2563 k!6711
c 2564 k!6712
c 2565 k!6713
c 2566 k!6714
c 2567 k!6715
c 2568 k!6716
c 2569 k!6717
c 2570 k!6718
c 2571 k!6719
c 2572 k!6720
c 2573 k!6721
c 2574 k!6722
c 2575 k!6723
c 2576 k!6724
c 2577 k!6725
c 2578 k!6726
c 2579 k!6727
c 2580 k!6728
c 2581 k!6729
c 2582 k!6730
c 2583 k!6731
c 2584 k!6732
c 2585 k!6733
c 2586 k!6734
c 2587 k!6735
c 2588 k!6736
c 2589 k!6737
c 2590 k!6738
c 2591 k!6739
c 2592 k!6740
c 2593 k!6741
c 2594 k!6742
c 2595 k!6743
c 2596 k!6744
c 2597 k!6745
c 2598 k!6746
c 2599 k!6747
c 2600 k!6748
c 2601 k!6749
c 2602 k!6750
c 2603 k!6751
c 2604 k!6752
c 2605 k!6753
c 2606 k!6754
c 2607 k!6755
c 2608 k!6756
c 2609 k!6757
c 2610 k!6758
c 2611 k!6759
c 2612 k!6760
c 2613 k!6761
c 2614 k!6762
c 2615 k!6763
c 2616 k!6764
c 2617 k!6765
c 2618 k!6766
c 2619 k!6767
c 2620 k!6768
c 2621 k!6769
c 2622 k!6770
c 2623 k!6771
c 2624 k!6772
c 2625 k!6773
c 2626 k!6774
c 2627 k!6775
c 2628 k!6776
c 2629 k!6777
c 2630 k!6778
c 2631 k!6779
c 2632 k!6780
c 2633 k!6781
c 2634 k!6782
c 2635 k!6783
c 2636 k!6784
c 2637 k!6785
c 2638 k!6786
c 2639 k!6787
c 2640 k!6788
c 2641 k!6789
c 2642 k!6790
c 2643 k!6791
c 2644 k!6792
c 2645 k!6793
c 2646 k!6794
c 2647 k!6795
c 2648 k!6796
c 2649 k!6797
c 2650 k!6798
c 2651 k!6799
c 2652 k!6800
c 2653 k!6801
c 2654 k!6802
c 2655 k!6803
c 2656 k!6804
c 2657 k!6805
c 2658 k!6806
c 2659 k!6807
c 2660 k!6808
c 2661 k!6809
c 2662 k!6810
c 2663 k!6811
c 2664 k!6812
c 2665 k!6813
c 2666 k!6814
c 2667 k!6815
c 2668 k!6816
c 2669 k!6817
c 2670 k!6818
c 2671 k!6819
c 2672 k!6820
c 2673 k!6821
c 2674 k!6822
c 2675 k!6823
c 2676 k!6824
c 2677 k!6825
c 2678 k!6826
c 2679 k!6827
c 2680 k!6828
c 2681 k!6829
c 2682 k!6830
c 2683 k!6831
c 2684 k!6832
c 2685 k!6833
c 2686 k!6834
c 2687 k!6835
c 2688 k!6836
c 2689 k!6837
c 2690 k!6838
c 2691 k!6839
c 2692 k!6840
c 2693 k!6841
c 2694 k!6842
c 2695 k!6843
c 2696 k!6844
c 2697 k!6845
c 2698 k!6846
c 2699 k!6847
c 2700 k!6848
c 2701 k!6849
c 2702 k!6850
c 2703 k!6851
c 2704 k!6852
c 2705 k!6853
c 2706 k!6854
c 2707 k!6855
c 2708 k!6856
c 2709 k!6857
c 2710 k!6858
c 2711 k!6859
c 2712 k!6860
c 2713 k!6861
c 2714 k!6862
c 2715 k!6863
c 2716 k!6864
c 2717 k!6865
c 2718 k!6866
c 2719 k!6867
c 2720 k!6868
c 2721 k!6869
c 2722 k!6870
c 2723 k!6871
c 2724 k!6872
c 2725 k!6873
c 2726 k!6874
c 2727 k!6875
c 2728 k!6876
c 2729 k!6877
c 2730 k!6878
c 2731 k!6879
c 2732 k!6880
c 2733 k!6881
c 2734 k!6882
c 2735 k!6883
c 2736 k!6884
c 2737 k!6885
c 2738 k!6886
c 2739 k!6887
c 2740 k!6888
c 2741 k!6889
c 2742 k!6890
c 2743 k!6891
c 2744 k!6892
c 2745 k!6893
c 2746 k!6894
c 2747 k!6895
c 2748 k!6896
c 2749 k!6897
c 2750 k!6898
c 2751 k!6899
c 2752 k!6900
c 2753 k!6901
c 2754 k!6902
c 2755 k!6903
c 2756 k!6904
c 2757 k!6905
c 2758 k!6906
c 2759 k!6907
c 2760 k!6908
c 2761 k!6909
c 2762 k!6910
c 2763 k!6911
c 2764 k!6912
c 2765 k!6913
c 2766 k!6914
c 2767 k!6915
c 2768 k!6916
c 2769 k!6917
c 2770 k!6918
c 2771 k!6919
c 2772 k!6920
c 2773 k!6921
c 2774 k!6922
c 2775 k!6923
c 2776 k!6924
c 2777 k!6925
c 2778 k!6926
c 2779 k!6927
c 2780 k!6928
c 2781 k!6929
c 2782 k!6930
c 2783 k!6931
c 2784 k!6932
c 2785 k!6933
c 2786 k!6934
c 2787 k!6935
c 2788 k!6936
c 2789 k!6937
c 2790 k!6938
c 2791 k!6939
c 2792 k!6940
c 2793 k!6941
c 2794 k!6942
c 2795 k!6943
c 2796 k!6944
c 2797 k!6945
c 2798 k!6946
c 2799 k!6947
c 2800 k!6948
c 2801 k!6949
c 2802 k!6950
c 2803 k!6951
c 2804 k!6952
c 2805 k!6953
c 2806 k!6954
c 2807 k!6955
c 2808 k!6956
c 2809 k!6957
c 2810 k!6958
c 2811 k!6959
c 2812 k!6960
c 2813 k!6961
c 2814 k!6962
c 2815 k!6963
c 2816 k!6964
c 2817 k!6965
c 2818 k!6966
c 2819 k!6967
c 2820 k!6968
c 2821 k!6969
c 2822 k!6970
c 2823 k!6971
c 2824 k!6972
c 2825 k!6973
c 2826 k!6974
c 2827 k!6975
c 2828 k!6976
c 2829 k!6977
c 2830 k!6978
c 2831 k!6979
c 2832 k!6980
c 2833 k!6981
c 2834 k!6982
c 2835 k!6983
c 2836 k!6984
c 2837 k!6985
c 2838 k!6986
c 2839 k!6987
c 2840 k!6988
c 2841 k!6989
c 2842 k!6990
c 2843 k!6991
c 2844 k!6992
c 2845 k!6993
c 2846 k!6994
c 2847 k!6995
c 2848 k!6996
c 2849 k!6997
c 2850 k!6998
c 2851 k!6999
c 2852 k!7000
c 2853 k!7001
c 2854 k!7002
c 2855 k!7003
c 2856 k!7004
c 2857 k!7005
c 2858 k!7006
c 2859 k!7007
c 2860 k!7008
c 2861 k!7009
c 2862 k!7010
c 2863 k!7011
c 2864 k!7012
c 2865 k!7013
c 2866 k!7014
c 2867 k!7015
c 2868 k!7016
c 2869 k!7017
c 2870 k!7018
c 2871 k!7019
c 2872 k!7020
c 2873 k!7021
c 2874 k!7022
c 2875 k!7023
c 2876 k!7024
c 2877 k!7025
c 2878 k!7026
c 2879 k!7027
c 2880 k!7028
c 2881 k!7029
c 2882 k!7030
c 2883 k!7031
c 2884 k!7032
c 2885 k!7033
c 2886 k!7034
c 2887 k!7035
c 2888 k!7036
c 2889 k!7037
c 2890 k!7038
c 2891 k!7039
c 2892 k!7040
c 2893 k!7041
c 2894 k!7042
c 2895 k!7043
c 2896 k!7044
c 2897 k!7045
c 2898 k!7046
c 2899 k!7047
c 2900 k!7048
c 2901 k!7049
c 2902 k!7050
c 2903 k!7051
c 2904 k!7052
c 2905 k!7053
c 2906 k!7054
c 2907 k!7055
c 2908 k!7056
c 2909 k!7057
c 2910 k!7058
c 2911 k!7059
c 2912 k!7060
c 2913 k!7061
c 2914 k!7062
c 2915 k!7063
c 2916 k!7064
c 2917 k!7065
c 2918 k!7066
c 2919 k!7067
c 2920 k!7068
c 2921 k!7069
c 2922 k!7070
c 2923 k!7071
c 2924 k!7072
c 2925 k!7073
c 2926 k!7074
c 2927 k!7075
c 2928 k!7076
c 2929 k!7077
c 2930 k!7078
c 2931 k!7079
c 2932 k!7080
c 2933 k!7081
c 2934 k!7082
c 2935 k!7083
c 2936 k!7084
c 2937 k!7085
c 2938 k!7086
c 2939 k!7087
c 2940 k!7088
c 2941 k!7089
c 2942 k!7090
c 2943 k!7091
c 2944 k!7092
c 2945 k!7093
c 2946 k!7094
c 2947 k!7095
c 2948 k!7096
c 2949 k!7097
c 2950 k!7098
c 2951 k!7099
c 2952 k!7100
c 2953 k!7101
c 2954 k!7102
c 2955 k!7103
c 2956 k!7104
c 2957 k!7105
c 2958 k!7106
c 2959 k!7107
c 2960 k!7108
c 2961 k!7109
c 2962 k!7110
c 2963 k!7111
c 2964 k!7112
c 2965 k!7113
c 2966 k!7114
c 2967 k!7115
c 2968 k!7116
c 2969 k!7117
c 2970 k!7118
c 2971 k!7119
c 2972 k!7120
c 2973 k!7121
c 2974 k!7122
c 2975 k!7123
c 2976 k!7124
c 2977 k!7125
c 2978 k!7126
c 2979 k!7127
c 2980 k!7128
c 2981 k!7129
c 2982 k!7130
c 2983 k!7131
c 2984 k!7132
c 2985 k!7133
c 2986 k!7134
c 2987 k!7135
c 2988 k!7136
c 2989 k!7137
c 2990 k!7138
c 2991 k!7139
c 2992 k!7140
c 2993 k!7141
c 2994 k!7142
c 2995 k!7143
c 2996 k!7144
c 2997 k!7145
c 2998 k!7146
c 2999 k!7147
c 3000 k!7148
c 3001 k!7149
c 3002 k!7150
c 3003 k!7151
c 3004 k!7152
c 3005 k!7153
c 3006 k!7154
c 3007 k!7155
c 3008 k!7156
c 3009 k!7157
c 3010 k!7158
c 3011 k!7159
c 3012 k!7160
c 3013 k!7161
c 3014 k!7162
c 3015 k!7163
c 3016 k!7164
c 3017 k!7165
c 3018 k!7166
c 3019 k!7167
c 3020 k!7168
c 3021 k!7169
c 3022 k!7170
c 3023 k!7171
c 3024 k!7172
c 3025 k!7173
c 3026 k!7174
c 3027 k!7175
c 3028 k!7176
c 3029 k!7177
c 3030 k!7178
c 3031 k!7179
c 3032 k!7180
c 3033 k!7181
c 3034 k!7182
c 3035 k!7183
c 3036 k!7184
c 3037 k!7185
c 3038 k!7186
c 3039 k!7187
c 3040 k!7188
c 3041 k!7189
c 3042 k!7190
c 3043 k!7191
c 3044 k!7192
c 3045 k!7193
c 3046 k!7194
c 3047 k!7195
c 3048 k!7196
c 3049 k!7197
c 3050 k!7198
c 3051 k!7199
c 3052 k!7200
c 3053 k!7201
c 3054 k!7202
c 3055 k!7203
c 3056 k!7204
c 3057 k!7205
c 3058 k!7206
c 3059 k!7207
c 3060 k!7208
c 3061 k!7209
c 3062 k!7210
c 3063 k!7211
c 3064 k!7212
c 3065 k!7213
c 3066 k!7214
c 3067 k!7215
c 3068 k!7216
c 3069 k!7217
c 3070 k!7218
c 3071 k!7219
c 3072 k!7220
c 3073 k!7221
c 3074 k!7222
c 3075 k!7223
c 3076 k!7224
c 3077 k!7225
c 3078 k!7226
c 3079 k!7227
c 3080 k!7228
c 3081 k!7229
c 3082 k!7230
c 3083 k!7231
c 3084 k!7232
c 3085 k!7233
c 3086 k!7234
c 3087 k!7235
c 3088 k!7236
c 3089 k!7237
c 3090 k!7238
c 3091 k!7239
c 3092 k!7240
c 3093 k!7241
c 3094 k!7242
c 3095 k!7243
c 3096 k!7244
c 3097 k!7245
c 3098 k!7246
c 3099 k!7247
c 3100 k!7248
c 3101 k!7249
c 3102 k!7250
c 3103 k!7251
c 3104 k!7252
c 3105 k!7253
c 3106 k!7254
c 3107 k!7255
c 3108 k!7256
c 3109 k!7257
c 3110 k!7258
c 3111 k!7259
c 3112 k!7260
c 3113 k!7261
c 3114 k!7262
c 3115 k!7263
c 3116 k!7264
c 3117 k!7265
c 3118 k!7266
c 3119 k!7267
c 3120 k!7268
c 3121 k!7269
c 3122 k!7270
c 3123 k!7271
c 3124 k!7272
c 3125 k!7273
c 3126 k!7274
c 3127 k!7275
c 3128 k!7276
c 3129 k!7277
c 3130 k!7278
c 3131 k!7279
c 3132 k!7280
c 3133 k!7281
c 3134 k!7282
c 3135 k!7283
c 3136 k!7284
c 3137 k!7285
c 3138 k!7286
c 3139 k!7287
c 3140 k!7288
c 3141 k!7289
c 3142 k!7290
c 3143 k!7291
c 3144 k!7292
c 3145 k!7293
c 3146 k!7294
c 3147 k!7295
c 3148 k!7296
c 3149 k!7297
c 3150 k!7298
c 3151 k!7299
c 3152 k!7300
c 3153 k!7301
c 3154 k!7302
c 3155 k!7303
c 3156 k!7304
c 3157 k!7305
c 3158 k!7306
c 3159 k!7307
c 3160 k!7308
c 3161 k!7309
c 3162 k!7310
c 3163 k!7311
c 3164 k!7312
c 3165 k!7313
c 3166 k!7314
c 3167 k!7315
c 3168 k!7316
c 3169 k!7317
c 3170 k!7318
c 3171 k!7319
c 3172 k!7320
c 3173 k!7321
c 3174 k!7322
c 3175 k!7323
c 3176 k!7324
c 3177 k!7325
c 3178 k!7326
c 3179 k!7327
c 3180 k!7328
c 3181 k!7329
c 3182 k!7330
c 3183 k!7331
c 3184 k!7332
c 3185 k!7333
c 3186 k!7334
c 3187 k!7335
c 3188 k!7336
c 3189 k!7337
c 3190 k!7338
c 3191 k!7339
c 3192 k!7340
c 3193 k!7341
c 3194 k!7342
c 3195 k!7343
c 3196 k!7344
c 3197 k!7345
c 3198 k!7346
c 3199 k!7347
c 3200 k!7348
c 3201 k!7349
c 3202 k!7350
c 3203 k!7351
c 3204 k!7352
c 3205 k!7353
c 3206 k!7354
c 3207 k!7355
c 3208 k!7356
c 3209 k!7357
c 3210 k!7358
c 3211 k!7359
c 3212 k!7360
c 3213 k!7361
c 3214 k!7362
c 3215 k!7363
c 3216 k!7364
c 3217 k!7365
c 3218 k!7366
c 3219 k!7367
c 3220 k!7368
c 3221 k!7369
c 3222 k!7370
c 3223 k!7371
c 3224 k!7372
c 3225 k!7373
c 3226 k!7374
c 3227 k!7375
c 3228 k!7376
c 3229 k!7377
c 3230 k!7378
c 3231 k!7379
c 3232 k!7380
c 3233 k!7381
c 3234 k!7382
c 3235 k!7383
c 3236 k!7384
c 3237 k!7385
c 3238 k!7386
c 3239 k!7387
c 3240 k!7388
c 3241 k!7389
c 3242 k!7390
c 3243 k!7391
c 3244 k!7392
c 3245 k!7393
c 3246 k!7394
c 3247 k!7395
c 3248 k!7396
c 3249 k!7397
c 3250 k!7398
c 3307 k!7399
c 3313 k!7400
c 3315 k!7401
c 3321 k!7402
c 3323 k!7403
c 3329 k!7404
c 3331 k!7405
c 3337 k!7406
c 3339 k!7407
c 3341 k!7408
c 3343 k!7409
c 3345 k!7410
c 3347 k!7411
c 3349 k!7412
c 3351 k!7413
c 3357 k!7414
c 3359 k!7415
c 3365 k!7416
c 3367 k!7417
c 3369 k!7418
c 3371 k!7419
c 3373 k!7420
c 3375 k!7421
c 3377 k!7422
c 3379 k!7423
c 3385 k!7424
c 3387 k!7425
c 3393 k!7426
c 3395 k!7427
c 3397 k!7428
c 3399 k!7429
c 3401 k!7430
c 3403 k!7431
c 3405 k!7432
c 3407 k!7433
c 3413 k!7434
c 3415 k!7435
c 3421 k!7436
c 3423 k!7437
c 3429 k!7438
c 3431 k!7439
c 3437 k!7440
c 3439 k!7441
c 3453 k!7442
c 3532 k!7443
c 3546 k!7444
c 3548 k!7445
c 3549 k!7446
c 3550 k!7447
c 3551 k!7448
c 3552 k!7449
c 3553 k!7450
c 3554 k!7451
c 3555 k!7452
c 3556 k!7453
c 3557 k!7454
c 3558 k!7455
c 3559 k!7456
c 3560 k!7457
c 3561 k!7458
c 3562 k!7459
c 3563 k!7460
c 3564 k!7461
c 3565 k!7462
c 3566 k!7463
c 3567 k!7464
c 3568 k!7465
c 3569 k!7466
c 3570 k!7467
c 3571 k!7468
c 3572 k!7469
c 3573 k!7470
c 3574 k!7471
c 3575 k!7472
c 3576 k!7473
c 3577 k!7474
c 3578 k!7475
c 3579 k!7476
c 3580 k!7477
c 3581 k!7478
c 3582 k!7479
c 3583 k!7480
c 3584 k!7481
c 3585 k!7482
c 3586 k!7483
c 3587 k!7484
c 3588 k!7485
c 3589 k!7486
c 3590 k!7487
c 3591 k!7488
c 3592 k!7489
c 3593 k!7490
c 3594 k!7491
c 3595 k!7492
c 3596 k!7493
c 3597 k!7494
c 3598 k!7495
c 3599 k!7496
c 3600 k!7497
c 3601 k!7498
c 3602 k!7499
c 3603 k!7500
c 3604 k!7501
c 3605 k!7502
c 3606 k!7503
c 3607 k!7504
c 3608 k!7505
c 3609 k!7506
c 3610 k!7507
c 3611 k!7508
c 3612 k!7509
c 3613 k!7510
c 3614 k!7511
c 3615 k!7512
c 3616 k!7513
c 3617 k!7514
c 3618 k!7515
c 3619 k!7516
c 3620 k!7517
c 3621 k!7518
c 3622 k!7519
c 3623 k!7520
c 3624 k!7521
c 3625 k!7522
c 3626 k!7523
c 3627 k!7524
c 3628 k!7525
c 3629 k!7526
c 3630 k!7527
c 3631 k!7528
c 3632 k!7529
c 3633 k!7530
c 3634 k!7531
c 3635 k!7532
c 3636 k!7533
c 3637 k!7534
c 3638 k!7535
c 3639 k!7536
c 3640 k!7537
c 3641 k!7538
c 3642 k!7539
c 3643 k!7540
c 3644 k!7541
c 3645 k!7542
c 3646 k!7543
c 3647 k!7544
c 3648 k!7545
c 3649 k!7546
c 3650 k!7547
c 3651 k!7548
c 3652 k!7549
c 3653 k!7550
c 3654 k!7551
c 3655 k!7552
c 3656 k!7553
c 3657 k!7554
c 3658 k!7555
c 3659 k!7556
c 3660 k!7557
c 3661 k!7558
c 3662 k!7559
c 3663 k!7560
c 3664 k!7561
c 3665 k!7562
c 3666 k!7563
c 3667 k!7564
c 3668 k!7565
c 3669 k!7566
c 3670 k!7567
c 3671 k!7568
c 3672 k!7569
c 3673 k!7570
c 3674 k!7571
c 3675 k!7572
c 3676 k!7573
c 3677 k!7574
c 3678 k!7575
c 3679 k!7576
c 3680 k!7577
c 3681 k!7578
c 3682 k!7579
c 3683 k!7580
c 3684 k!7581
c 3685 k!7582
c 3686 k!7583
c 3687 k!7584
c 3688 k!7585
c 3689 k!7586
c 3690 k!7587
c 3691 k!7588
c 3692 k!7589
c 3693 k!7590
c 3694 k!7591
c 3695 k!7592
c 3696 k!7593
c 3697 k!7594
c 3698 k!7595
c 3699 k!7596
c 3700 k!7597
c 3701 k!7598
c 3702 k!7599
c 3703 k!7600
c 3704 k!7601
c 3705 k!7602
c 3706 k!7603
c 3707 k!7604
c 3708 k!7605
c 3709 k!7606
c 3710 k!7607
c 3711 k!7608
c 3712 k!7609
c 3713 k!7610
c 3714 k!7611
c 3715 k!7612
c 3716 k!7613
c 3717 k!7614
c 3718 k!7615
c 3719 k!7616
c 3720 k!7617
c 3721 k!7618
c 3722 k!7619
c 3723 k!7620
c 3724 k!7621
c 3725 k!7622
c 3726 k!7623
c 3727 k!7624
c 3728 k!7625
c 3729 k!7626
c 3730 k!7627
c 3731 k!7628
c 3732 k!7629
c 3733 k!7630
c 3734 k!7631
c 3735 k!7632
c 3736 k!7633
c 3737 k!7634
c 3738 k!7635
c 3739 k!7636
c 3740 k!7637
c 3741 k!7638
c 3742 k!7639
c 3743 k!7640
c 3744 k!7641
c 3745 k!7642
c 3746 k!7643
c 3747 k!7644
c 3748 k!7645
c 3749 k!7646
c 3750 k!7647
c 3751 k!7648
c 3752 k!7649
c 3753 k!7650
c 3754 k!7651
c 3755 k!7652
c 3756 k!7653
c 3757 k!7654
c 3758 k!7655
c 3759 k!7656
c 3760 k!7657
c 3761 k!7658
c 3762 k!7659
c 3763 k!7660
c 3764 k!7661
c 3765 k!7662
c 3766 k!7663
c 3767 k!7664
c 3768 k!7665
c 3769 k!7666
c 3770 k!7667
c 3771 k!7668
c 3772 k!7669
c 3773 k!7670
c 3774 k!7671
c 3775 k!7672
c 3776 k!7673
c 3777 k!7674
c 3778 k!7675
c 3779 k!7676
c 3780 k!7677
c 3781 k!7678
c 3782 k!7679
c 3783 k!7680
c 3784 k!7681
c 3785 k!7682
c 3786 k!7683
c 3787 k!7684
c 3788 k!7685
c 3789 k!7686
c 3790 k!7687
c 3791 k!7688
c 3792 k!7689
c 3793 k!7690
c 3794 k!7691
c 3795 k!7692
c 3796 k!7693
c 3797 k!7694
c 3798 k!7695
c 3799 k!7696
c 3800 k!7697
c 3801 k!7698
c 3802 k!7699
c 3803 k!7700
c 3804 k!7701
c 3805 k!7702
c 3806 k!7703
c 3807 k!7704
c 3808 k!7705
c 3809 k!7706
c 3810 k!7707
c 3811 k!7708
c 3812 k!7709
c 3813 k!7710
c 3814 k!7711
c 3815 k!7712
c 3816 k!7713
c 3817 k!7714
c 3818 k!7715
c 3819 k!7716
c 3820 k!7717
c 3821 k!7718
c 3822 k!7719
c 3823 k!7720
c 3824 k!7721
c 3825 k!7722
c 3826 k!7723
c 3827 k!7724
c 3828 k!7725
c 3829 k!7726
c 3830 k!7727
c 3831 k!7728
c 3832 k!7729
c 3833 k!7730
c 3834 k!7731
c 3835 k!7732
c 3836 k!7733
c 3837 k!7734
c 3838 k!7735
c 3839 k!7736
c 3840 k!7737
c 3841 k!7738
c 3842 k!7739
c 3843 k!7740
c 3844 k!7741
c 3845 k!7742
c 3846 k!7743
c 3847 k!7744
c 3848 k!7745
c 3849 k!7746
c 3850 k!7747
c 3851 k!7748
c 3852 k!7749
c 3853 k!7750
c 3854 k!7751
c 3855 k!7752
c 3856 k!7753
c 3857 k!7754
c 3858 k!7755
c 3859 k!7756
c 3860 k!7757
c 3861 k!7758
c 3862 k!7759
c 3863 k!7760
c 3864 k!7761
c 3865 k!7762
c 3866 k!7763
c 3867 k!7764
c 3868 k!7765
c 3869 k!7766
c 3870 k!7767
c 3871 k!7768
c 3872 k!7769
c 3873 k!7770
c 3874 k!7771
c 3875 k!7772
c 3876 k!7773
c 3877 k!7774
c 3878 k!7775
c 3879 k!7776
c 3880 k!7777
c 3881 k!7778
c 3882 k!7779
c 3883 k!7780
c 3884 k!7781
c 3885 k!7782
c 3886 k!7783
c 3887 k!7784
c 3888 k!7785
c 3889 k!7786
c 3890 k!7787
c 3891 k!7788
c 3892 k!7789
c 3893 k!7790
c 3894 k!7791
c 3895 k!7792
c 3896 k!7793
c 3897 k!7794
c 3898 k!7795
c 3899 k!7796
c 3900 k!7797
c 3901 k!7798
c 3902 k!7799
c 3903 k!7800
c 3904 k!7801
c 3905 k!7802
c 3906 k!7803
c 3907 k!7804
c 3908 k!7805
c 3909 k!7806
c 3910 k!7807
c 3911 k!7808
c 3912 k!7809
c 3913 k!7810
c 3914 k!7811
c 3915 k!7812
c 3916 k!7813
c 3917 k!7814
c 3918 k!7815
c 3919 k!7816
c 3920 k!7817
c 3921 k!7818
c 3922 k!7819
c 3923 k!7820
c 3924 k!7821
c 3925 k!7822
c 3926 k!7823
c 3927 k!7824
c 3928 k!7825
c 3929 k!7826
c 3930 k!7827
c 3931 k!7828
c 3932 k!7829
c 3933 k!7830
c 3934 k!7831
c 3935 k!7832
c 3936 k!7833
c 3937 k!7834
c 3938 k!7835
c 3939 k!7836
c 3940 k!7837
c 3941 k!7838
c 3942 k!7839
c 3943 k!7840
c 3944 k!7841
c 3945 k!7842
c 3946 k!7843
c 3947 k!7844
c 3948 k!7845
c 3949 k!7846
c 3950 k!7847
c 3951 k!7848
c 3952 k!7849
c 3953 k!7850
c 3954 k!7851
c 3955 k!7852
c 3956 k!7853
c 3957 k!7854
c 3958 k!7855
c 3959 k!7856
c 3960 k!7857
c 3961 k!7858
c 3962 k!7859
c 3963 k!7860
c 3964 k!7861
c 3965 k!7862
c 3966 k!7863
c 3967 k!7864
c 3968 k!7865
c 3969 k!7866
c 3970 k!7867
c 3971 k!7868
c 3972 k!7869
c 3973 k!7870
c 3974 k!7871
c 3975 k!7872
c 3976 k!7873
c 3977 k!7874
c 3978 k!7875
c 3979 k!7876
c 3980 k!7877
c 3981 k!7878
c 3982 k!7879
c 3983 k!7880
c 3984 k!7881
c 3985 k!7882
c 3986 k!7883
c 3987 k!7884
c 3988 k!7885
c 3989 k!7886
c 3990 k!7887
c 3991 k!7888
c 3992 k!7889
c 3993 k!7890
c 3994 k!7891
c 3995 k!7892
c 3996 k!7893
c 3997 k!7894
c 3998 k!7895
c 3999 k!7896
c 4000 k!7897
c 4001 k!7898
c 4002 k!7899
c 4003 k!7900
c 4004 k!7901
c 4005 k!7902
c 4006 k!7903
c 4007 k!7904
c 4008 k!7905
c 4009 k!7906
c 4010 k!7907
c 4011 k!7908
c 4012 k!7909
c 4013 k!7910
c 4014 k!7911
c 4015 k!7912
c 4016 k!7913
c 4017 k!7914
c 4018 k!7915
c 4019 k!7916
c 4020 k!7917
c 4021 k!7918
c 4022 k!7919
c 4023 k!7920
c 4024 k!7921
c 4025 k!7922
c 4026 k!7923
c 4027 k!7924
c 4028 k!7925
c 4029 k!7926
c 4030 k!7927
c 4031 k!7928
c 4032 k!7929
c 4033 k!7930
c 4034 k!7931
c 4035 k!7932
c 4036 k!7933
c 4037 k!7934
c 4038 k!7935
c 4039 k!7936
c 4040 k!7937
c 4041 k!7938
c 4042 k!7939
c 4043 k!7940
c 4044 k!7941
c 4045 k!7942
c 4046 k!7943
c 4047 k!7944
c 4048 k!7945
c 4049 k!7946
c 4050 k!7947
c 4051 k!7948
c 4052 k!7949
c 4053 k!7950
c 4054 k!7951
c 4055 k!7952
c 4056 k!7953
c 4057 k!7954
c 4058 k!7955
c 4059 k!7956
c 4060 k!7957
c 4061 k!7958
c 4062 k!7959
c 4063 k!7960
c 4064 k!7961
c 4065 k!7962
c 4066 k!7963
c 4067 k!7964
c 4068 k!7965
c 4069 k!7966
c 4070 k!7967
c 4071 k!7968
c 4072 k!7969
c 4073 k!7970
c 4074 k!7971
c 4075 k!7972
c 4076 k!7973
c 4077 k!7974
c 4078 k!7975
c 4079 k!7976
c 4080 k!7977
c 4081 k!7978
c 4082 k!7979
c 4083 k!7980
c 4084 k!7981
c 4085 k!7982
c 4086 k!7983
c 4087 k!7984
c 4088 k!7985
c 4089 k!7986
c 4090 k!7987
c 4091 k!7988
c 4092 k!7989
c 4093 k!7990
c 4094 k!7991
c 4095 k!7992
c 4096 k!7993
c 4097 k!7994
c 4098 k!7995
c 4099 k!7996
c 4100 k!7997
c 4101 k!7998
c 4102 k!7999
c 4103 k!8000
c 4104 k!8001
c 4105 k!8002
c 4106 k!8003
c 4107 k!8004
c 4108 k!8005
c 4109 k!8006
c 4110 k!8007
c 4111 k!8008
c 4112 k!8009
c 4113 k!8010
c 4114 k!8011
c 4115 k!8012
c 4116 k!8013
c 4117 k!8014
c 4118 k!8015
c 4119 k!8016
c 4120 k!8017
c 4121 k!8018
c 4122 k!8019
c 4123 k!8020
c 4124 k!8021
c 4125 k!8022
c 4126 k!8023
c 4127 k!8024
c 4128 k!8025
c 4129 k!8026
c 4130 k!8027
c 4131 k!8028
c 4132 k!8029
c 4133 k!8030
c 4134 k!8031
c 4135 k!8032
c 4136 k!8033
c 4137 k!8034
c 4138 k!8035
c 4139 k!8036
c 4140 k!8037
c 4141 k!8038
c 4142 k!8039
c 4143 k!8040
c 4144 k!8041
c 4145 k!8042
c 4146 k!8043
c 4147 k!8044
c 4148 k!8045
c 4149 k!8046
c 4150 k!8047
c 4151 k!8048
c 4152 k!8049
c 4153 k!8050
c 4154 k!8051
c 4155 k!8052
c 4156 k!8053
c 4157 k!8054
c 4158 k!8055
c 4159 k!8056
c 4160 k!8057
c 4161 k!8058
c 4162 k!8059
c 4163 k!8060
c 4164 k!8061
c 4165 k!8062
c 4166 k!8063
c 4167 k!8064
c 4168 k!8065
c 4169 k!8066
c 4170 k!8067
c 4171 k!8068
c 4172 k!8069
c 4173 k!8070
c 4174 k!8071
c 4175 k!8072
c 4176 k!8073
c 4177 k!8074
c 4178 k!8075
c 4179 k!8076
c 4180 k!8077
c 4181 k!8078
c 4182 k!8079
c 4183 k!8080
c 4184 k!8081
c 4185 k!8082
c 4186 k!8083
c 4187 k!8084
c 4188 k!8085
c 4189 k!8086
c 4190 k!8087
c 4191 k!8088
c 4192 k!8089
c 4193 k!8090
c 4194 k!8091
c 4195 k!8092
c 4196 k!8093
c 4197 k!8094
c 4198 k!8095
c 4199 k!8096
c 4200 k!8097
c 4201 k!8098
c 4202 k!8099
c 4203 k!8100
c 4204 k!8101
c 4205 k!8102
c 4206 k!8103
c 4207 k!8104
c 4208 k!8105
c 4209 k!8106
c 4210 k!8107
c 4211 k!8108
c 4212 k!8109
c 4213 k!8110
c 4214 k!8111
c 4215 k!8112
c 4216 k!8113
c 4217 k!8114
c 4218 k!8115
c 4219 k!8116
c 4220 k!8117
c 4221 k!8118
c 4222 k!8119
c 4223 k!8120
c 4224 k!8121
c 4225 k!8122
c 4226 k!8123
c 4227 k!8124
c 4228 k!8125
c 4229 k!8126
c 4230 k!8127
c 4231 k!8128
c 4232 k!8129
c 4233 k!8130
c 4234 k!8131
c 4235 k!8132
c 4236 k!8133
c 4237 k!8134
c 4238 k!8135
c 4239 k!8136
c 4240 k!8137
c 4241 k!8138
c 4242 k!8139
c 4243 k!8140
c 4244 k!8141
c 4245 k!8142
c 4246 k!8143
c 4247 k!8144
c 4248 k!8145
c 4249 k!8146
c 4250 k!8147
c 4251 k!8148
c 4252 k!8149
c 4253 k!8150
c 4254 k!8151
c 4255 k!8152
c 4256 k!8153
c 4257 k!8154
c 4258 k!8155
c 4259 k!8156
c 4260 k!8157
c 4261 k!8158
c 4262 k!8159
c 4263 k!8160
c 4264 k!8161
c 4265 k!8162
c 4266 k!8163
c 4267 k!8164
c 4268 k!8165
c 4269 k!8166
c 4270 k!8167
c 4271 k!8168
c 4272 k!8169
c 4273 k!8170
c 4274 k!8171
c 4275 k!8172
c 4276 k!8173
c 4277 k!8174
c 4278 k!8175
c 4279 k!8176
c 4280 k!8177
c 4281 k!8178
c 4282 k!8179
c 4283 k!8180
c 4284 k!8181
c 4285 k!8182
c 4286 k!8183
c 4287 k!8184
c 4288 k!8185
c 4289 k!8186
c 4290 k!8187
c 4291 k!8188
c 4292 k!8189
c 4293 k!8190
c 4294 k!8191
c 4295 k!8192
c 4296 k!8193
c 4297 k!8194
c 4298 k!8195
c 4299 k!8196
c 4300 k!8197
c 4301 k!8198
c 4302 k!8199
c 4303 k!8200
c 4304 k!8201
c 4305 k!8202
c 4306 k!8203
c 4307 k!8204
c 4308 k!8205
c 4309 k!8206
c 4310 k!8207
c 4311 k!8208
c 4312 k!8209
c 4313 k!8210
c 4314 k!8211
c 4315 k!8212
c 4316 k!8213
c 4317 k!8214
c 4318 k!8215
c 4319 k!8216
c 4320 k!8217
c 4321 k!8218
c 4322 k!8219
c 4323 k!8220
c 4324 k!8221
c 4325 k!8222
c 4326 k!8223
c 4327 k!8224
c 4328 k!8225
c 4329 k!8226
c 4330 k!8227
c 4331 k!8228
c 4332 k!8229
c 4333 k!8230
c 4334 k!8231
c 4335 k!8232
c 4336 k!8233
c 4337 k!8234
c 4338 k!8235
c 4339 k!8236
c 4340 k!8237
c 4341 k!8238
c 4342 k!8239
c 4343 k!8240
c 4344 k!8241
c 4345 k!8242
c 4346 k!8243
c 4347 k!8244
c 4348 k!8245
c 4349 k!8246
c 4350 k!8247
c 4351 k!8248
c 4352 k!8249
c 4353 k!8250
c 4354 k!8251
c 4355 k!8252
c 4356 k!8253
c 4357 k!8254
c 4358 k!8255
c 4359 k!8256
c 4360 k!8257
c 4361 k!8258
c 4362 k!8259
c 4363 k!8260
c 4364 k!8261
c 4365 k!8262
c 4366 k!8263
c 4367 k!8264
c 4368 k!8265
c 4369 k!8266
c 4370 k!8267
c 4371 k!8268
c 4372 k!8269
c 4373 k!8270
c 4374 k!8271
c 4375 k!8272
c 4376 k!8273
c 4377 k!8274
c 4378 k!8275
c 4379 k!8276
c 4380 k!8277
c 4381 k!8278
c 4382 k!8279
c 4383 k!8280
c 4384 k!8281
c 4385 k!8282
c 4386 k!8283
c 4387 k!8284
c 4388 k!8285
c 4389 k!8286
c 4390 k!8287
c 4391 k!8288
c 4392 k!8289
c 4393 k!8290
c 4394 k!8291
c 4395 k!8292
c 4396 k!8293
c 4397 k!8294
c 4398 k!8295
c 4399 k!8296
c 4400 k!8297
c 4401 k!8298
c 4402 k!8299
c 4403 k!8300
c 4404 k!8301
c 4405 k!8302
c 4406 k!8303
c 4407 k!8304
c 4408 k!8305
c 4409 k!8306
c 4410 k!8307
c 4411 k!8308
c 4412 k!8309
c 4413 k!8310
c 4414 k!8311
c 4415 k!8312
c 4416 k!8313
c 4417 k!8314
c 4418 k!8315
c 4419 k!8316
c 4420 k!8317
c 4421 k!8318
c 4422 k!8319
c 4423 k!8320
c 4424 k!8321
c 4425 k!8322
c 4426 k!8323
c 4427 k!8324
c 4428 k!8325
c 4429 k!8326
c 4430 k!8327
c 4431 k!8328
c 4432 k!8329
c 4433 k!8330
c 4434 k!8331
c 4435 k!8332
c 4436 k!8333
c 4437 k!8334
c 4438 k!8335
c 4439 k!8336
c 4440 k!8337
c 4441 k!8338
c 4442 k!8339
c 4443 k!8340
c 4444 k!8341
c 4445 k!8342
c 4446 k!8343
c 4447 k!8344
c 4448 k!8345
c 4449 k!8346
c 4450 k!8347
c 4451 k!8348
c 4452 k!8349
c 4453 k!8350
c 4454 k!8351
c 4455 k!8352
c 4456 k!8353
c 4457 k!8354
c 4458 k!8355
c 4459 k!8356
c 4460 k!8357
c 4461 k!8358
c 4462 k!8359
c 4463 k!8360
c 4464 k!8361
c 4465 k!8362
c 4466 k!8363
c 4467 k!8364
c 4468 k!8365
c 4469 k!8366
c 4470 k!8367
c 4471 k!8368
c 4472 k!8369
c 4473 k!8370
c 4474 k!8371
c 4475 k!8372
c 4476 k!8373
c 4477 k!8374
c 4478 k!8375
c 4479 k!8376
c 4480 k!8377
c 4481 k!8378
c 4482 k!8379
c 4483 k!8380
c 4484 k!8381
c 4485 k!8382
c 4486 k!8383
c 4487 k!8384
c 4488 k!8385
c 4489 k!8386
c 4490 k!8387
c 4491 k!8388
c 4492 k!8389
c 4493 k!8390
c 4494 k!8391
c 4495 k!8392
c 4496 k!8393
c 4497 k!8394
c 4498 k!8395
c 4499 k!8396
c 4500 k!8397
c 4501 k!8398
c 4502 k!8399
c 4503 k!8400
c 4504 k!8401
c 4505 k!8402
c 4506 k!8403
c 4507 k!8404
c 4508 k!8405
c 4509 k!8406
c 4510 k!8407
c 4511 k!8408
c 4512 k!8409
c 4513 k!8410
c 4514 k!8411
c 4515 k!8412
c 4516 k!8413
c 4517 k!8414
c 4518 k!8415
c 4519 k!8416
c 4520 k!8417
c 4521 k!8418
c 4522 k!8419
c 4523 k!8420
c 4524 k!8421
c 4525 k!8422
c 4526 k!8423
c 4527 k!8424
c 4528 k!8425
c 4529 k!8426
c 4530 k!8427
c 4531 k!8428
c 4532 k!8429
c 4533 k!8430
c 4534 k!8431
c 4535 k!8432
c 4536 k!8433
c 4537 k!8434
c 4538 k!8435
c 4539 k!8436
c 4540 k!8437
c 4541 k!8438
c 4542 k!8439
c 4543 k!8440
c 4544 k!8441
c 4545 k!8442
c 4546 k!8443
c 4547 k!8444
c 4548 k!8445
c 4549 k!8446
c 4550 k!8447
c 4551 k!8448
c 4552 k!8449
c 4553 k!8450
c 4554 k!8451
c 4555 k!8452
c 4556 k!8453
c 4557 k!8454
c 4558 k!8455
c 4559 k!8456
c 4560 k!8457
c 4561 k!8458
c 4562 k!8459
c 4563 k!8460
c 4564 k!8461
c 4565 k!8462
c 4566 k!8463
c 4567 k!8464
c 4568 k!8465
c 4569 k!8466
c 4570 k!8467
c 4571 k!8468
c 4572 k!8469
c 4573 k!8470
c 4574 k!8471
c 4575 k!8472
c 4576 k!8473
c 4577 k!8474
c 4578 k!8475
c 4579 k!8476
c 4580 k!8477
c 4581 k!8478
c 4582 k!8479
c 4583 k!8480
c 4584 k!8481
c 4585 k!8482
c 4586 k!8483
c 4587 k!8484
c 4588 k!8485
c 4589 k!8486
c 4590 k!8487
c 4591 k!8488
c 4592 k!8489
c 4593 k!8490
c 4594 k!8491
c 4595 k!8492
c 4596 k!8493
c 4597 k!8494
c 4598 k!8495
c 4599 k!8496
c 4600 k!8497
c 4601 k!8498
c 4602 k!8499
c 4603 k!8500
c 4604 k!8501
c 4605 k!8502
c 4606 k!8503
c 4607 k!8504
c 4608 k!8505
c 4609 k!8506
c 4610 k!8507
c 4611 k!8508
c 4612 k!8509
c 4613 k!8510
c 4614 k!8511
c 4615 k!8512
c 4616 k!8513
c 4617 k!8514
c 4618 k!8515
c 4619 k!8516
c 4620 k!8517
c 4621 k!8518
c 4622 k!8519
c 4623 k!8520
c 4624 k!8521
c 4625 k!8522
c 4626 k!8523
c 4627 k!8524
c 4628 k!8525
c 4629 k!8526
c 4630 k!8527
c 4631 k!8528
c 4632 k!8529
c 4633 k!8530
c 4634 k!8531
c 4635 k!8532
c 4636 k!8533
c 4637 k!8534
c 4638 k!8535
c 4639 k!8536
c 4640 k!8537
c 4641 k!8538
c 4642 k!8539
c 4643 k!8540
c 4644 k!8541
c 4645 k!8542
c 4646 k!8543
c 4647 k!8544
c 4648 k!8545
c 4649 k!8546
c 4650 k!8547
c 4651 k!8548
c 4652 k!8549
c 4653 k!8550
c 4654 k!8551
c 4655 k!8552
c 4656 k!8553
c 4657 k!8554
c 4658 k!8555
c 4659 k!8556
c 4660 k!8557
c 4661 k!8558
c 4662 k!8559
c 4663 k!8560
c 4664 k!8561
c 4665 k!8562
c 4666 k!8563
c 4667 k!8564
c 4668 k!8565
c 4669 k!8566
c 4670 k!8567
c 4671 k!8568
c 4672 k!8569
c 4673 k!8570
c 4674 k!8571
c 4675 k!8572
c 4676 k!8573
c 4677 k!8574
c 4678 k!8575
c 4679 k!8576
c 4680 k!8577
c 4681 k!8578
c 4682 k!8579
c 4683 k!8580
c 4684 k!8581
c 4685 k!8582
c 4686 k!8583
c 4687 k!8584
c 4688 k!8585
c 4689 k!8586
c 4690 k!8587
c 4691 k!8588
c 4692 k!8589
c 4693 k!8590
c 4694 k!8591
c 4695 k!8592
c 4696 k!8593
c 4697 k!8594
c 4698 k!8595
c 4699 k!8596
c 4700 k!8597
c 4701 k!8598
c 4702 k!8599
c 4703 k!8600
c 4704 k!8601
c 4705 k!8602
c 4706 k!8603
c 4707 k!8604
c 4708 k!8605
c 4709 k!8606
c 4710 k!8607
c 4711 k!8608
c 4712 k!8609
c 4713 k!8610
c 4714 k!8611
c 4715 k!8612
c 4716 k!8613
c 4717 k!8614
c 4718 k!8615
c 4719 k!8616
c 4720 k!8617
c 4721 k!8618
c 4722 k!8619
c 4723 k!8620
c 4724 k!8621
c 4725 k!8622
c 4726 k!8623
c 4727 k!8624
c 4728 k!8625
c 4729 k!8626
c 4730 k!8627
c 4731 k!8628
c 4732 k!8629
c 4733 k!8630
c 4734 k!8631
c 4735 k!8632
c 4736 k!8633
c 4737 k!8634
c 4738 k!8635
c 4739 k!8636
c 4740 k!8637
c 4741 k!8638
c 4742 k!8639
c 4743 k!8640
c 4744 k!8641
c 4745 k!8642
c 4746 k!8643
c 4747 k!8644
c 4748 k!8645
c 4749 k!8646
c 4750 k!8647
c 4751 k!8648
c 4752 k!8649
c 4753 k!8650
c 4754 k!8651
c 4755 k!8652
c 4756 k!8653
c 4757 k!8654
c 4758 k!8655
c 4759 k!8656
c 4760 k!8657
c 4761 k!8658
c 4762 k!8659
c 4763 k!8660
c 4764 k!8661
c 4765 k!8662
c 4766 k!8663
c 4767 k!8664
c 4768 k!8665
c 4769 k!8666
c 4770 k!8667
c 4771 k!8668
c 4772 k!8669
c 4773 k!8670
c 4774 k!8671
c 4775 k!8672
c 4776 k!8673
c 4777 k!8674
c 4778 k!8675
c 4779 k!8676
c 4780 k!8677
c 4781 k!8678
c 4782 k!8679
c 4783 k!8680
c 4784 k!8681
c 4785 k!8682
c 4786 k!8683
c 4787 k!8684
c 4788 k!8685
c 4789 k!8686
c 4790 k!8687
c 4791 k!8688
c 4792 k!8689
c 4793 k!8690
c 4794 k!8691
c 4795 k!8692
c 4796 k!8693
c 4797 k!8694
c 4798 k!8695
c 4799 k!8696
c 4800 k!8697
c 4801 k!8698
c 4802 k!8699
c 4803 k!8700
c 4804 k!8701
c 4805 k!8702
c 4806 k!8703
c 4807 k!8704
c 4808 k!8705
c 4809 k!8706
c 4810 k!8707
c 4811 k!8708
c 4812 k!8709
c 4813 k!8710
c 4814 k!8711
c 4815 k!8712
c 4816 k!8713
c 4817 k!8714
c 4818 k!8715
c 4819 k!8716
c 4820 k!8717
c 4821 k!8718
c 4822 k!8719
c 4823 k!8720
c 4824 k!8721
c 4825 k!8722
c 4826 k!8723
c 4827 k!8724
c 4828 k!8725
c 4829 k!8726
c 4830 k!8727
c 4831 k!8728
c 4832 k!8729
c 4833 k!8730
c 4834 k!8731
c 4835 k!8732
c 4836 k!8733
c 4837 k!8734
c 4838 k!8735
c 4839 k!8736
c 4840 k!8737
c 4841 k!8738
c 4842 k!8739
c 4843 k!8740
c 4844 k!8741
c 4845 k!8742
c 4846 k!8743
c 4847 k!8744
c 4848 k!8745
c 4849 k!8746
c 4850 k!8747
c 4851 k!8748
c 4852 k!8749
c 4853 k!8750
c 4854 k!8751
c 4855 k!8752
c 4856 k!8753
c 4857 k!8754
c 4858 k!8755
c 4859 k!8756
c 4860 k!8757
c 4861 k!8758
c 4862 k!8759
c 4863 k!8760
c 4864 k!8761
c 4865 k!8762
c 4866 k!8763
c 4867 k!8764
c 4868 k!8765
c 4869 k!8766
c 4870 k!8767
c 4871 k!8768
c 4872 k!8769
c 4873 k!8770
c 4874 k!8771
c 4875 k!8772
c 4876 k!8773
c 4877 k!8774
c 4878 k!8775
c 4879 k!8776
c 4880 k!8777
c 4881 k!8778
c 4882 k!8779
c 4883 k!8780
c 4884 k!8781
c 4885 k!8782
c 4886 k!8783
c 4887 k!8784
c 4888 k!8785
c 4889 k!8786
c 4890 k!8787
c 4891 k!8788
c 4892 k!8789
c 4893 k!8790
c 4894 k!8791
c 4895 k!8792
c 4896 k!8793
c 4897 k!8794
c 4898 k!8795
c 4899 k!8796
c 4900 k!8797
c 4901 k!8798
c 4902 k!8799
c 4903 k!8800
c 4904 k!8801
c 4905 k!8802
c 4906 k!8803
c 4907 k!8804
c 4908 k!8805
c 4909 k!8806
c 4910 k!8807
c 4911 k!8808
c 4912 k!8809
c 4913 k!8810
c 4914 k!8811
c 4915 k!8812
c 4916 k!8813
c 4917 k!8814
c 4918 k!8815
c 4919 k!8816
c 4920 k!8817
c 4921 k!8818
c 4922 k!8819
c 4923 k!8820
c 4924 k!8821
c 4925 k!8822
c 4926 k!8823
c 4927 k!8824
c 4928 k!8825
c 4929 k!8826
c 4930 k!8827
c 4931 k!8828
c 4932 k!8829
c 4933 k!8830
c 4934 k!8831
c 4935 k!8832
c 4936 k!8833
c 4937 k!8834
c 4938 k!8835
c 4939 k!8836
c 4940 k!8837
c 4941 k!8838
c 4942 k!8839
c 4943 k!8840
c 4944 k!8841
c 4945 k!8842
c 4946 k!8843
c 4947 k!8844
c 4948 k!8845
c 4949 k!8846
c 4950 k!8847
c 4951 k!8848
c 4952 k!8849
c 4953 k!8850
c 4954 k!8851
c 4955 k!8852
c 4956 k!8853
c 4957 k!8854
c 4958 k!8855
c 4959 k!8856
c 4960 k!8857
c 4961 k!8858
c 4962 k!8859
c 4963 k!8860
c 4964 k!8861
c 4965 k!8862
c 4966 k!8863
c 4967 k!8864
c 4968 k!8865
c 4969 k!8866
c 4970 k!8867
c 4971 k!8868
c 4972 k!8869
c 4973 k!8870
c 4974 k!8871
c 4975 k!8872
c 4976 k!8873
c 4977 k!8874
c 4978 k!8875
c 4979 k!8876
c 4980 k!8877
c 4981 k!8878
c 4982 k!8879
c 4983 k!8880
c 4984 k!8881
c 4985 k!8882
c 4986 k!8883
c 4987 k!8884
c 4988 k!8885
c 4989 k!8886
c 4990 k!8887
c 4991 k!8888
c 4992 k!8889
c 4993 k!8890
c 4994 k!8891
c 4995 k!8892
c 4996 k!8893
c 4997 k!8894
c 4998 k!8895
c 4999 k!8896
c 5000 k!8897
c 5001 k!8898
c 5002 k!8899
c 5003 k!8900
c 5004 k!8901
c 5005 k!8902
c 5006 k!8903
c 5007 k!8904
c 5008 k!8905
c 5009 k!8906
c 5010 k!8907
c 5011 k!8908
c 5012 k!8909
c 5013 k!8910
c 5014 k!8911
c 5015 k!8912
c 5016 k!8913
c 5017 k!8914
c 5018 k!8915
c 5019 k!8916
c 5020 k!8917
c 5021 k!8918
c 5022 k!8919
c 5023 k!8920
c 5024 k!8921
c 5025 k!8922
c 5026 k!8923
c 5027 k!8924
c 5028 k!8925
c 5029 k!8926
c 5030 k!8927
c 5031 k!8928
c 5032 k!8929
c 5033 k!8930
c 5034 k!8931
c 5035 k!8932
c 5036 k!8933
c 5037 k!8934
c 5038 k!8935
c 5039 k!8936
c 5040 k!8937
c 5041 k!8938
c 5042 k!8939
c 5043 k!8940
c 5044 k!8941
c 5045 k!8942
c 5046 k!8943
c 5047 k!8944
c 5048 k!8945
c 5049 k!8946
c 5050 k!8947
c 5051 k!8948
c 5052 k!8949
c 5053 k!8950
c 5054 k!8951
c 5055 k!8952
c 5056 k!8953
c 5057 k!8954
c 5058 k!8955
c 5059 k!8956
c 5060 k!8957
c 5061 k!8958
c 5062 k!8959
c 5063 k!8960
c 5064 k!8961
c 5065 k!8962
c 5066 k!8963
c 5067 k!8964
c 5068 k!8965
c 5069 k!8966
c 5070 k!8967
c 5071 k!8968
c 5072 k!8969
c 5073 k!8970
c 5074 k!8971
c 5075 k!8972
c 5076 k!8973
c 5077 k!8974
c 5078 k!8975
c 5079 k!8976
c 5080 k!8977
c 5081 k!8978
c 5082 k!8979
c 5083 k!8980
c 5084 k!8981
c 5085 k!8982
c 5086 k!8983
c 5087 k!8984
c 5088 k!8985
c 5089 k!8986
c 5090 k!8987
c 5091 k!8988
c 5092 k!8989
c 5093 k!8990
c 5094 k!8991
c 5095 k!8992
c 5096 k!8993
c 5097 k!8994
c 5098 k!8995
c 5099 k!8996
c 5100 k!8997
c 5101 k!8998
c 5102 k!8999
c 5103 k!9000
c 5104 k!9001
c 5105 k!9002
c 5106 k!9003
c 5107 k!9004
c 5108 k!9005
c 5109 k!9006
c 5110 k!9007
c 5111 k!9008
c 5112 k!9009
c 5113 k!9010
c 5114 k!9011
c 5115 k!9012
c 5116 k!9013
c 5117 k!9014
c 5118 k!9015
c 5119 k!9016
c 5120 k!9017
c 5121 k!9018
c 5122 k!9019
c 5123 k!9020
c 5124 k!9021
c 5125 k!9022
c 5126 k!9023
c 5127 k!9024
c 5128 k!9025
c 5129 k!9026
c 5130 k!9027
c 5131 k!9028
c 5132 k!9029
c 5133 k!9030
c 5134 k!9031
c 5135 k!9032
c 5136 k!9033
c 5137 k!9034
c 5138 k!9035
c 5139 k!9036
c 5140 k!9037
c 5141 k!9038
c 5142 k!9039
c 5143 k!9040
c 5144 k!9041
c 5145 k!9042
c 5146 k!9043
c 5147 k!9044
c 5148 k!9045
c 5149 k!9046
c 5150 k!9047
c 5151 k!9048
c 5152 k!9049
c 5153 k!9050
c 5154 k!9051
c 5155 k!9052
c 5156 k!9053
c 5157 k!9054
c 5158 k!9055
c 5159 k!9056
c 5160 k!9057
c 5161 k!9058
c 5162 k!9059
c 5163 k!9060
c 5164 k!9061
c 5165 k!9062
c 5166 k!9063
c 5167 k!9064
c 5168 k!9065
c 5169 k!9066
c 5170 k!9067
c 5171 k!9068
c 5172 k!9069
c 5173 k!9070
c 5174 k!9071
c 5175 k!9072
c 5176 k!9073
c 5177 k!9074
c 5178 k!9075
c 5179 k!9076
c 5180 k!9077
c 5181 k!9078
c 5182 k!9079
c 5183 k!9080
c 5184 k!9081
c 5185 k!9082
c 5186 k!9083
c 5187 k!9084
c 5188 k!9085
c 5189 k!9086
c 5190 k!9087
c 5191 k!9088
c 5192 k!9089
c 5193 k!9090
c 5194 k!9091
c 5195 k!9092
c 5196 k!9093
c 5197 k!9094
c 5198 k!9095
c 5199 k!9096
c 5200 k!9097
c 5201 k!9098
c 5202 k!9099
c 5203 k!9100
c 5204 k!9101
c 5205 k!9102
c 5206 k!9103
c 5207 k!9104
c 5208 k!9105
c 5209 k!9106
c 5210 k!9107
c 5211 k!9108
c 5212 k!9109
c 5213 k!9110
c 5214 k!9111
c 5215 k!9112
c 5216 k!9113
c 5217 k!9114
c 5218 k!9115
c 5219 k!9116
c 5220 k!9117
c 5221 k!9118
c 5222 k!9119
c 5223 k!9120
c 5224 k!9121
c 5225 k!9122
c 5226 k!9123
c 5227 k!9124
c 5228 k!9125
c 5229 k!9126
c 5230 k!9127
c 5231 k!9128
c 5232 k!9129
c 5233 k!9130
c 5234 k!9131
c 5235 k!9132
c 5236 k!9133
c 5237 k!9134
c 5238 k!9135
c 5239 k!9136
c 5240 k!9137
c 5241 k!9138
c 5242 k!9139
c 5243 k!9140
c 5244 k!9141
c 5245 k!9142
c 5246 k!9143
c 5247 k!9144
c 5248 k!9145
c 5249 k!9146
c 5250 k!9147
c 5251 k!9148
c 5252 k!9149
c 5253 k!9150
c 5254 k!9151
c 5255 k!9152
c 5256 k!9153
c 5257 k!9154
c 5258 k!9155
c 5259 k!9156
c 5260 k!9157
c 5261 k!9158
c 5262 k!9159
c 5263 k!9160
c 5264 k!9161
c 5265 k!9162
c 5266 k!9163
c 5267 k!9164
c 5268 k!9165
c 5269 k!9166
c 5270 k!9167
c 5271 k!9168
c 5272 k!9169
c 5273 k!9170
c 5274 k!9171
c 5275 k!9172
c 5276 k!9173
c 5277 k!9174
c 5278 k!9175
c 5279 k!9176
c 5280 k!9177
c 5281 k!9178
c 5282 k!9179
c 5283 k!9180
c 5284 k!9181
c 5285 k!9182
c 5286 k!9183
c 5287 k!9184
c 5288 k!9185
c 5289 k!9186
c 5290 k!9187
c 5291 k!9188
c 5292 k!9189
c 5293 k!9190
c 5294 k!9191
c 5295 k!9192
c 5296 k!9193
c 5297 k!9194
c 5298 k!9195
c 5299 k!9196
c 5300 k!9197
c 5301 k!9198
c 5302 k!9199
c 5303 k!9200
c 5304 k!9201
c 5305 k!9202
c 5306 k!9203
c 5307 k!9204
c 5308 k!9205
c 5309 k!9206
c 5310 k!9207
c 5311 k!9208
c 5312 k!9209
c 5313 k!9210
c 5314 k!9211
c 5315 k!9212
c 5316 k!9213
c 5317 k!9214
c 5318 k!9215
c 5319 k!9216
c 5320 k!9217
c 5321 k!9218
c 5322 k!9219
c 5323 k!9220
c 5324 k!9221
c 5325 k!9222
c 5326 k!9223
c 5327 k!9224
c 5328 k!9225
c 5329 k!9226
c 5330 k!9227
c 5331 k!9228
c 5332 k!9229
c 5333 k!9230
c 5334 k!9231
c 5335 k!9232
c 5336 k!9233
c 5337 k!9234
c 5338 k!9235
c 5339 k!9236
c 5340 k!9237
c 5341 k!9238
c 5342 k!9239
c 5343 k!9240
c 5344 k!9241
c 5345 k!9242
c 5346 k!9243
c 5347 k!9244
c 5348 k!9245
c 5349 k!9246
c 5350 k!9247
c 5351 k!9248
c 5352 k!9249
c 5353 k!9250
c 5354 k!9251
c 5355 k!9252
c 5356 k!9253
c 5357 k!9254
c 5358 k!9255
c 5359 k!9256
c 5360 k!9257
c 5361 k!9258
c 5362 k!9259
c 5363 k!9260
c 5364 k!9261
c 5365 k!9262
c 5366 k!9263
c 5367 k!9264
c 5368 k!9265
c 5369 k!9266
c 5370 k!9267
c 5371 k!9268
c 5372 k!9269
c 5373 k!9270
c 5374 k!9271
c 5375 k!9272
c 5376 k!9273
c 5377 k!9274
c 5378 k!9275
c 5379 k!9276
c 5380 k!9277
c 5381 k!9278
c 5382 k!9279
c 5383 k!9280
c 5384 k!9281
c 5385 k!9282
c 5386 k!9283
c 5387 k!9284
c 5388 k!9285
c 5389 k!9286
c 5390 k!9287
c 5391 k!9288
c 5392 k!9289
c 5393 k!9290
c 5394 k!9291
c 5395 k!9292
c 5396 k!9293
c 5397 k!9294
c 5398 k!9295
c 5399 k!9296
c 5400 k!9297
c 5401 k!9298
c 5402 k!9299
c 5403 k!9300
c 5404 k!9301
c 5405 k!9302
c 5406 k!9303
c 5407 k!9304
c 5408 k!9305
c 5409 k!9306
c 5410 k!9307
c 5411 k!9308
c 5412 k!9309
c 5413 k!9310
c 5414 k!9311
c 5415 k!9312
c 5416 k!9313
c 5417 k!9314
c 5418 k!9315
c 5419 k!9316
c 5420 k!9317
c 5421 k!9318
c 5422 k!9319
c 5423 k!9320
c 5424 k!9321
c 5425 k!9322
c 5426 k!9323
c 5427 k!9324
c 5428 k!9325
c 5429 k!9326
c 5430 k!9327
c 5431 k!9328
c 5432 k!9329
c 5433 k!9330
c 5434 k!9331
c 5435 k!9332
c 5436 k!9333
c 5437 k!9334
c 5438 k!9335
c 5439 k!9336
c 5440 k!9337
c 5441 k!9338
c 5442 k!9339
c 5443 k!9340
c 5444 k!9341
c 5445 k!9342
c 5446 k!9343
c 5447 k!9344
c 5448 k!9345
c 5449 k!9346
c 5450 k!9347
c 5451 k!9348
c 5452 k!9349
c 5453 k!9350
c 5454 k!9351
c 5455 k!9352
c 5456 k!9353
c 5457 k!9354
c 5458 k!9355
c 5459 k!9356
c 5460 k!9357
c 5461 k!9358
c 5462 k!9359
c 5463 k!9360
c 5464 k!9361
c 5465 k!9362
c 5466 k!9363
c 5467 k!9364
c 5468 k!9365
c 5469 k!9366
c 5470 k!9367
c 5471 k!9368
c 5472 k!9369
c 5473 k!9370
c 5474 k!9371
c 5475 k!9372
c 5476 k!9373
c 5477 k!9374
c 5478 k!9375
c 5479 k!9376
c 5480 k!9377
c 5481 k!9378
c 5482 k!9379
c 5483 k!9380
c 5484 k!9381
c 5485 k!9382
c 5486 k!9383
c 5487 k!9384
c 5488 k!9385
c 5489 k!9386
c 5490 k!9387
c 5491 k!9388
c 5492 k!9389
c 5493 k!9390
c 5494 k!9391
c 5495 k!9392
c 5496 k!9393
c 5497 k!9394
c 5498 k!9395
c 5499 k!9396
c 5500 k!9397
c 5501 k!9398
c 5502 k!9399
c 5503 k!9400
c 5504 k!9401
c 5505 k!9402
c 5506 k!9403
c 5507 k!9404
c 5508 k!9405
c 5509 k!9406
c 5510 k!9407
c 5511 k!9408
c 5512 k!9409
c 5513 k!9410
c 5514 k!9411
c 5515 k!9412
c 5516 k!9413
c 5517 k!9414
c 5518 k!9415
c 5519 k!9416
c 5520 k!9417
c 5521 k!9418
c 5522 k!9419
c 5523 k!9420
c 5524 k!9421
c 5525 k!9422
c 5526 k!9423
c 5527 k!9424
c 5528 k!9425
c 5529 k!9426
c 5530 k!9427
c 5531 k!9428
c 5532 k!9429
c 5533 k!9430
c 5534 k!9431
c 5535 k!9432
c 5536 k!9433
c 5537 k!9434
c 5538 k!9435
c 5539 k!9436
c 5540 k!9437
c 5541 k!9438
c 5542 k!9439
c 5543 k!9440
c 5544 k!9441
c 5545 k!9442
c 5546 k!9443
c 5547 k!9444
c 5548 k!9445
c 5549 k!9446
c 5550 k!9447
c 5551 k!9448
c 5552 k!9449
c 5553 k!9450
c 5554 k!9451
c 5555 k!9452
c 5556 k!9453
c 5557 k!9454
c 5558 k!9455
c 5559 k!9456
c 5560 k!9457
c 5561 k!9458
c 5562 k!9459
c 5563 k!9460
c 5564 k!9461
c 5565 k!9462
c 5566 k!9463
c 5567 k!9464
c 5568 k!9465
c 5569 k!9466
c 5570 k!9467
c 5571 k!9468
c 5572 k!9469
c 5573 k!9470
c 5574 k!9471
c 5575 k!9472
c 5576 k!9473
c 5577 k!9474
c 5578 k!9475
c 5579 k!9476
c 5580 k!9477
c 5581 k!9478
c 5582 k!9479
c 5583 k!9480
c 5584 k!9481
c 5585 k!9482
c 5586 k!9483
c 5587 k!9484
c 5588 k!9485
c 5589 k!9486
c 5590 k!9487
c 5591 k!9488
c 5592 k!9489
c 5593 k!9490
c 5594 k!9491
c 5595 k!9492
c 5596 k!9493
c 5597 k!9494
c 5598 k!9495
c 5599 k!9496
c 5600 k!9497
c 5601 k!9498
c 5602 k!9499
c 5603 k!9500
c 5604 k!9501
c 5605 k!9502
c 5606 k!9503
c 5607 k!9504
c 5608 k!9505
c 5609 k!9506
c 5610 k!9507
c 5611 k!9508
c 5612 k!9509
c 5613 k!9510
c 5614 k!9511
c 5615 k!9512
c 5616 k!9513
c 5617 k!9514
c 5618 k!9515
c 5619 k!9516
c 5620 k!9517
c 5621 k!9518
c 5622 k!9519
c 5623 k!9520
c 5624 k!9521
c 5625 k!9522
c 5626 k!9523
c 5627 k!9524
c 5628 k!9525
c 5629 k!9526
c 5630 k!9527
c 5631 k!9528
c 5632 k!9529
c 5633 k!9530
c 5634 k!9531
c 5635 k!9532
c 5636 k!9533
c 5637 k!9534
c 5638 k!9535
c 5639 k!9536
c 5640 k!9537
c 5641 k!9538
c 5642 k!9539
c 5643 k!9540
c 5644 k!9541
c 5645 k!9542
c 5646 k!9543
c 5647 k!9544
c 5648 k!9545
c 5649 k!9546
c 5650 k!9547
c 5651 k!9548
c 5652 k!9549
c 5653 k!9550
c 5654 k!9551
c 5655 k!9552
c 5656 k!9553
c 5657 k!9554
c 5658 k!9555
c 5659 k!9556
c 5660 k!9557
c 5661 k!9558
c 5662 k!9559
c 5663 k!9560
c 5664 k!9561
c 5665 k!9562
c 5666 k!9563
c 5667 k!9564
c 5668 k!9565
c 5669 k!9566
c 5670 k!9567
c 5671 k!9568
c 5672 k!9569
c 5673 k!9570
c 5674 k!9571
c 5675 k!9572
c 5676 k!9573
c 5677 k!9574
c 5678 k!9575
c 5679 k!9576
c 5680 k!9577
c 5681 k!9578
c 5682 k!9579
c 5683 k!9580
c 5684 k!9581
c 5685 k!9582
c 5686 k!9583
c 5687 k!9584
c 5688 k!9585
c 5689 k!9586
c 5690 k!9587
c 5691 k!9588
c 5692 k!9589
c 5693 k!9590
c 5694 k!9591
c 5695 k!9592
c 5696 k!9593
c 5697 k!9594
c 5698 k!9595
c 5699 k!9596
c 5700 k!9597
c 5701 k!9598
c 5702 k!9599
c 5703 k!9600
c 5704 k!9601
c 5705 k!9602
c 5706 k!9603
c 5707 k!9604
c 5708 k!9605
c 5709 k!9606
c 5710 k!9607
c 5711 k!9608
c 5712 k!9609
c 5713 k!9610
c 5714 k!9611
c 5715 k!9612
c 5716 k!9613
c 5717 k!9614
c 5718 k!9615
c 5719 k!9616
c 5720 k!9617
c 5721 k!9618
c 5722 k!9619
c 5723 k!9620
c 5724 k!9621
c 5725 k!9622
c 5726 k!9623
c 5727 k!9624
c 5728 k!9625
c 5729 k!9626
c 5730 k!9627
c 5731 k!9628
c 5732 k!9629
c 5733 k!9630
c 5734 k!9631
c 5735 k!9632
c 5736 k!9633
c 5737 k!9634
c 5738 k!9635
c 5739 k!9636
c 5740 k!9637
c 5741 k!9638
c 5742 k!9639
c 5743 k!9640
c 5744 k!9641
c 5745 k!9642
c 5746 k!9643
c 5747 k!9644
c 5748 k!9645
c 5749 k!9646
c 5750 k!9647
c 5751 k!9648
c 5752 k!9649
c 5753 k!9650
c 5754 k!9651
c 5755 k!9652
c 5756 k!9653
c 5757 k!9654
c 5758 k!9655
c 5759 k!9656
c 5760 k!9657
c 5761 k!9658
c 5762 k!9659
c 5763 k!9660
c 5764 k!9661
c 5765 k!9662
c 5766 k!9663
c 5767 k!9664
c 5768 k!9665
c 5769 k!9666
c 5770 k!9667
c 5771 k!9668
c 5772 k!9669
c 5773 k!9670
c 5774 k!9671
c 5775 k!9672
c 5776 k!9673
c 5777 k!9674
c 5778 k!9675
c 5779 k!9676
c 5780 k!9677
c 5781 k!9678
c 5782 k!9679
c 5783 k!9680
c 5784 k!9681
c 5785 k!9682
c 5786 k!9683
c 5787 k!9684
c 5788 k!9685
c 5789 k!9686
c 5790 k!9687
c 5791 k!9688
c 5792 k!9689
c 5793 k!9690
c 5794 k!9691
c 5795 k!9692
c 5796 k!9693
c 5797 k!9694
c 5798 k!9695
c 5799 k!9696
c 5800 k!9697
c 5801 k!9698
c 5802 k!9699
c 5803 k!9700
c 5804 k!9701
c 5805 k!9702
c 5806 k!9703
c 5807 k!9704
c 5808 k!9705
c 5809 k!9706
c 5810 k!9707
c 5811 k!9708
c 5812 k!9709
c 5813 k!9710
c 5814 k!9711
c 5815 k!9712
c 5816 k!9713
c 5817 k!9714
c 5818 k!9715
c 5819 k!9716
c 5820 k!9717
c 5821 k!9718
c 5822 k!9719
c 5823 k!9720
c 5824 k!9721
c 5825 k!9722
c 5826 k!9723
c 5827 k!9724
c 5828 k!9725
c 5829 k!9726
c 5830 k!9727
c 5831 k!9728
c 5832 k!9729
c 5833 k!9730
c 5834 k!9731
c 5835 k!9732
c 5836 k!9733
c 5837 k!9734
c 5838 k!9735
c 5839 k!9736
c 5840 k!9737
c 5841 k!9738
c 5842 k!9739
c 5843 k!9740
c 5844 k!9741
c 5845 k!9742
c 5846 k!9743
c 5847 k!9744
c 5848 k!9745
c 5849 k!9746
c 5850 k!9747
c 5851 k!9748
c 5852 k!9749
c 5853 k!9750
c 5854 k!9751
c 5855 k!9752
c 5856 k!9753
c 5857 k!9754
c 5858 k!9755
c 5859 k!9756
c 5860 k!9757
c 5861 k!9758
c 5862 k!9759
c 5863 k!9760
c 5864 k!9761
c 5865 k!9762
c 5866 k!9763
c 5867 k!9764
c 5868 k!9765
c 5869 k!9766
c 5870 k!9767
c 5871 k!9768
c 5872 k!9769
c 5873 k!9770
c 5874 k!9771
c 5875 k!9772
c 5876 k!9773
c 5877 k!9774
c 5878 k!9775
c 5879 k!9776
c 5880 k!9777
c 5881 k!9778
c 5882 k!9779
c 5883 k!9780
c 5884 k!9781
c 5885 k!9782
c 5886 k!9783
c 5887 k!9784
c 5888 k!9785
c 5889 k!9786
c 5890 k!9787
c 5891 k!9788
c 5892 k!9789
c 5893 k!9790
c 5894 k!9791
c 5895 k!9792
c 5896 k!9793
c 5897 k!9794
c 5898 k!9795
c 5899 k!9796
c 5900 k!9797
c 5901 k!9798
c 5902 k!9799
c 5903 k!9800
c 5904 k!9801
c 5905 k!9802
c 5906 k!9803
c 5907 k!9804
c 5908 k!9805
c 5909 k!9806
c 5910 k!9807
c 5911 k!9808
c 5912 k!9809
c 5913 k!9810
c 5914 k!9811
c 5915 k!9812
c 5916 k!9813
c 5917 k!9814
c 5918 k!9815
c 5919 k!9816
c 5920 k!9817
c 5921 k!9818
c 5922 k!9819
c 5923 k!9820
c 5924 k!9821
c 5925 k!9822
c 5926 k!9823
c 5927 k!9824
c 5928 k!9825
c 5929 k!9826
c 5930 k!9827
c 5931 k!9828
c 5932 k!9829
c 5933 k!9830
c 5934 k!9831
c 5935 k!9832
c 5936 k!9833
c 5937 k!9834
c 5938 k!9835
c 5939 k!9836
c 5940 k!9837
c 5941 k!9838
c 5942 k!9839
c 5943 k!9840
c 5944 k!9841
c 5945 k!9842
c 5946 k!9843
c 5947 k!9844
c 5948 k!9845
c 5949 k!9846
c 5950 k!9847
c 5951 k!9848
c 5952 k!9849
c 5953 k!9850
c 5954 k!9851
c 5955 k!9852
c 5956 k!9853
c 5957 k!9854
c 5958 k!9855
c 5959 k!9856
c 5960 k!9857
c 5961 k!9858
c 5962 k!9859
c 5963 k!9860
c 5964 k!9861
c 5965 k!9862
c 5966 k!9863
c 5967 k!9864
c 5968 k!9865
c 5969 k!9866
c 5970 k!9867
c 5971 k!9868
c 5972 k!9869
c 5973 k!9870
c 5974 k!9871
c 5975 k!9872
c 5976 k!9873
c 5977 k!9874
c 5978 k!9875
c 5979 k!9876
c 5980 k!9877
c 5981 k!9878
c 5982 k!9879
c 5983 k!9880
c 5984 k!9881
c 5985 k!9882
c 5986 k!9883
c 5987 k!9884
c 5988 k!9885
c 5989 k!9886
c 5990 k!9887
c 5991 k!9888
c 5992 k!9889
c 5993 k!9890
c 5994 k!9891
c 5995 k!9892
c 5996 k!9893
c 5997 k!9894
c 5998 k!9895
c 5999 k!9896
c 6000 k!9897
c 6001 k!9898
c 6002 k!9899
c 6003 k!9900
c 6004 k!9901
c 6005 k!9902
c 6006 k!9903
c 6007 k!9904
c 6008 k!9905
c 6009 k!9906
c 6010 k!9907
c 6011 k!9908
c 6012 k!9909
c 6013 k!9910
c 6014 k!9911
c 6015 k!9912
c 6016 k!9913
c 6017 k!9914
c 6018 k!9915
c 6019 k!9916
c 6020 k!9917
c 6021 k!9918
c 6022 k!9919
c 6023 k!9920
c 6024 k!9921
c 6025 k!9922
c 6026 k!9923
c 6027 k!9924
c 6028 k!9925
c 6029 k!9926
c 6030 k!9927
c 6031 k!9928
c 6032 k!9929
c 6033 k!9930
c 6034 k!9931
c 6035 k!9932
c 6036 k!9933
c 6037 k!9934
c 6038 k!9935
c 6039 k!9936
c 6040 k!9937
c 6041 k!9938
c 6042 k!9939
c 6043 k!9940
c 6044 k!9941
c 6045 k!9942
c 6046 k!9943
c 6047 k!9944
c 6048 k!9945
c 6049 k!9946
c 6050 k!9947
c 6051 k!9948
c 6052 k!9949
c 6053 k!9950
c 6054 k!9951
c 6055 k!9952
c 6056 k!9953
c 6057 k!9954
c 6058 k!9955
c 6059 k!9956
c 6060 k!9957
c 6061 k!9958
c 6062 k!9959
c 6063 k!9960
c 6064 k!9961
c 6065 k!9962
c 6066 k!9963
c 6067 k!9964
c 6068 k!9965
c 6069 k!9966
c 6070 k!9967
c 6071 k!9968
c 6072 k!9969
c 6073 k!9970
c 6074 k!9971
c 6075 k!9972
c 6076 k!9973
c 6077 k!9974
c 6078 k!9975
c 6079 k!9976
c 6080 k!9977
c 6081 k!9978
c 6082 k!9979
c 6083 k!9980
c 6084 k!9981
c 6085 k!9982
c 6086 k!9983
c 6087 k!9984
c 6088 k!9985
c 6089 k!9986
c 6090 k!9987
c 6091 k!9988
c 6092 k!9989
c 6093 k!9990
c 6094 k!9991
c 6095 k!9992
c 6096 k!9993
c 6097 k!9994
c 6098 k!9995
c 6099 k!9996
c 6100 k!9997
c 6101 k!9998
c 6102 k!9999
c 6103 k!10000
c 6104 k!10001
c 6105 k!10002
c 6106 k!10003
c 6107 k!10004
c 6108 k!10005
c 6109 k!10006
c 6110 k!10007
c 6111 k!10008
c 6112 k!10009
c 6113 k!10010
c 6114 k!10011
c 6115 k!10012
c 6116 k!10013
c 6117 k!10014
c 6118 k!10015
c 6119 k!10016
c 6120 k!10017
c 6121 k!10018
c 6122 k!10019
c 6123 k!10020
c 6124 k!10021
c 6125 k!10022
c 6126 k!10023
c 6127 k!10024
c 6128 k!10025
c 6129 k!10026
c 6130 k!10027
c 6131 k!10028
c 6132 k!10029
c 6133 k!10030
c 6134 k!10031
c 6135 k!10032
c 6136 k!10033
c 6137 k!10034
c 6138 k!10035
c 6139 k!10036
c 6140 k!10037
c 6141 k!10038
c 6142 k!10039
c 6143 k!10040
c 6144 k!10041
c 6145 k!10042
c 6146 k!10043
c 6147 k!10044
c 6148 k!10045
c 6149 k!10046
c 6150 k!10047
c 6151 k!10048
c 6152 k!10049
c 6153 k!10050
c 6154 k!10051
c 6155 k!10052
c 6156 k!10053
c 6157 k!10054
c 6158 k!10055
c 6159 k!10056
c 6160 k!10057
c 6161 k!10058
c 6162 k!10059
c 6163 k!10060
c 6164 k!10061
c 6165 k!10062
c 6166 k!10063
c 6167 k!10064
c 6168 k!10065
c 6169 k!10066
c 6170 k!10067
c 6171 k!10068
c 6172 k!10069
c 6173 k!10070
c 6174 k!10071
c 6175 k!10072
c 6176 k!10073
c 6177 k!10074
c 6178 k!10075
c 6179 k!10076
c 6180 k!10077
c 6181 k!10078
c 6182 k!10079
c 6183 k!10080
c 6184 k!10081
c 6185 k!10082
c 6186 k!10083
c 6187 k!10084
c 6188 k!10085
c 6189 k!10086
c 6190 k!10087
c 6191 k!10088
c 6192 k!10089
c 6193 k!10090
c 6194 k!10091
c 6195 k!10092
c 6196 k!10093
c 6197 k!10094
c 6198 k!10095
c 6199 k!10096
c 6200 k!10097
c 6201 k!10098
c 6202 k!10099
c 6203 k!10100
c 6204 k!10101
c 6205 k!10102
c 6206 k!10103
c 6207 k!10104
c 6208 k!10105
c 6209 k!10106
c 6210 k!10107
c 6211 k!10108
c 6212 k!10109
c 6213 k!10110
c 6214 k!10111
c 6215 k!10112
c 6216 k!10113
c 6217 k!10114
c 6218 k!10115
c 6219 k!10116
c 6220 k!10117
c 6221 k!10118
c 6222 k!10119
c 6223 k!10120
c 6224 k!10121
c 6225 k!10122
c 6226 k!10123
c 6227 k!10124
c 6228 k!10125
c 6229 k!10126
c 6230 k!10127
c 6231 k!10128
c 6232 k!10129
c 6233 k!10130
c 6234 k!10131
c 6235 k!10132
c 6236 k!10133
c 6237 k!10134
c 6238 k!10135
c 6239 k!10136
c 6240 k!10137
c 6241 k!10138
c 6242 k!10139
c 6243 k!10140
c 6244 k!10141
c 6245 k!10142
c 6246 k!10143
c 6247 k!10144
c 6248 k!10145
c 6249 k!10146
c 6250 k!10147
c 6251 k!10148
c 6252 k!10149
c 6253 k!10150
c 6254 k!10151
c 6255 k!10152
c 6256 k!10153
c 6257 k!10154
c 6258 k!10155
c 6259 k!10156
c 6260 k!10157
c 6261 k!10158
c 6262 k!10159
c 6263 k!10160
c 6264 k!10161
c 6265 k!10162
c 6266 k!10163
c 6267 k!10164
c 6268 k!10165
c 6269 k!10166
c 6270 k!10167
c 6271 k!10168
c 6272 k!10169
c 6273 k!10170
c 6274 k!10171
c 6275 k!10172
c 6276 k!10173
c 6277 k!10174
c 6278 k!10175
c 6279 k!10176
c 6280 k!10177
c 6281 k!10178
c 6282 k!10179
c 6283 k!10180
c 6284 k!10181
c 6285 k!10182
c 6286 k!10183
c 6287 k!10184
c 6288 k!10185
c 6289 k!10186
c 6290 k!10187
c 6291 k!10188
c 6292 k!10189
c 6293 k!10190
c 6294 k!10191
c 6295 k!10192
c 6296 k!10193
c 6297 k!10194
c 6298 k!10195
c 6299 k!10196
c 6300 k!10197
c 6301 k!10198
c 6302 k!10199
c 6303 k!10200
c 6304 k!10201
c 6305 k!10202
c 6306 k!10203
c 6307 k!10204
c 6308 k!10205
c 6309 k!10206
c 6310 k!10207
c 6311 k!10208
c 6312 k!10209
c 6313 k!10210
c 6314 k!10211
c 6315 k!10212
c 6316 k!10213
c 6317 k!10214
c 6318 k!10215
c 6319 k!10216
c 6320 k!10217
c 6321 k!10218
c 6322 k!10219
c 6323 k!10220
c 6324 k!10221
c 6325 k!10222
c 6326 k!10223
c 6327 k!10224
c 6328 k!10225
c 6329 k!10226
c 6330 k!10227
c 6331 k!10228
c 6332 k!10229
c 6333 k!10230
c 6334 k!10231
c 6335 k!10232
c 6336 k!10233
c 6337 k!10234
c 6338 k!10235
c 6339 k!10236
c 6340 k!10237
c 6341 k!10238
c 6342 k!10239
c 6343 k!10240
c 6344 k!10241
c 6345 k!10242
c 6346 k!10243
c 6347 k!10244
c 6348 k!10245
c 6349 k!10246
c 6350 k!10247
c 6351 k!10248
c 6352 k!10249
c 6353 k!10250
c 6354 k!10251
c 6355 k!10252
c 6356 k!10253
c 6357 k!10254
c 6358 k!10255
c 6359 k!10256
c 6360 k!10257
c 6361 k!10258
c 6362 k!10259
c 6363 k!10260
c 6364 k!10261
c 6365 k!10262
c 6366 k!10263
c 6367 k!10264
c 6368 k!10265
c 6369 k!10266
c 6370 k!10267
c 6371 k!10268
c 6372 k!10269
c 6373 k!10270
c 6374 k!10271
c 6375 k!10272
c 6376 k!10273
c 6377 k!10274
c 6378 k!10275
c 6379 k!10276
c 6380 k!10277
c 6381 k!10278
c 6382 k!10279
c 6383 k!10280
c 6384 k!10281
c 6385 k!10282
c 6386 k!10283
c 6387 k!10284
c 6388 k!10285
c 6389 k!10286
c 6390 k!10287
c 6391 k!10288
c 6392 k!10289
c 6393 k!10290
c 6394 k!10291
c 6395 k!10292
c 6396 k!10293
c 6397 k!10294
c 6398 k!10295
c 6399 k!10296
c 6400 k!10297
c 6401 k!10298
c 6402 k!10299
c 6403 k!10300
c 6404 k!10301
c 6405 k!10302
c 6406 k!10303
c 6407 k!10304
c 6408 k!10305
c 6409 k!10306
c 6410 k!10307
c 6411 k!10308
c 6412 k!10309
c 6413 k!10310
c 6414 k!10311
c 6415 k!10312
c 6416 k!10313
c 6417 k!10314
c 6418 k!10315
c 6419 k!10316
c 6420 k!10317
c 6421 k!10318
c 6422 k!10319
c 6423 k!10320
c 6424 k!10321
c 6425 k!10322
c 6426 k!10323
c 6427 k!10324
c 6428 k!10325
c 6429 k!10326
c 6430 k!10327
c 6431 k!10328
c 6432 k!10329
c 6433 k!10330
c 6434 k!10331
c 6435 k!10332
c 6436 k!10333
c 6437 k!10334
c 6438 k!10335
c 6439 k!10336
c 6440 k!10337
c 6441 k!10338
c 6442 k!10339
c 6443 k!10340
c 6444 k!10341
c 6445 k!10342
c 6446 k!10343
c 6447 k!10344
c 6448 k!10345
c 6449 k!10346
c 6450 k!10347
c 6451 k!10348
c 6452 k!10349
c 6453 k!10350
c 6454 k!10351
c 6455 k!10352
c 6456 k!10353
c 6457 k!10354
c 6458 k!10355
c 6459 k!10356
c 6460 k!10357
c 6461 k!10358
c 6462 k!10359
c 6463 k!10360
c 6464 k!10361
c 6465 k!10362
c 6466 k!10363
c 6467 k!10364
c 6468 k!10365
c 6469 k!10366
c 6470 k!10367
c 6471 k!10368
c 6472 k!10369
c 6473 k!10370
c 6474 k!10371
c 6475 k!10372
c 6476 k!10373
c 6477 k!10374
c 6478 k!10375
c 6479 k!10376
c 6480 k!10377
c 6481 k!10378
c 6482 k!10379
c 6483 k!10380
c 6484 k!10381
c 6485 k!10382
c 6486 k!10383
c 6487 k!10384
c 6488 k!10385
c 6489 k!10386
c 6490 k!10387
c 6491 k!10388
c 6492 k!10389
c 6493 k!10390
c 6494 k!10391
c 6495 k!10392
c 6496 k!10393
c 6497 k!10394
c 6498 k!10395
c 6499 k!10396
c 6500 k!10397
c 6501 k!10398
c 6502 k!10399
c 6503 k!10400
c 6504 k!10401
c 6505 k!10402
c 6506 k!10403
c 6507 k!10404
c 6508 k!10405
c 6509 k!10406
c 6510 k!10407
c 6511 k!10408
c 6512 k!10409
c 6513 k!10410
c 6514 k!10411
c 6515 k!10412
c 6516 k!10413
c 6517 k!10414
c 6518 k!10415
c 6519 k!10416
c 6520 k!10417
c 6521 k!10418
c 6522 k!10419
c 6523 k!10420
c 6524 k!10421
c 6525 k!10422
c 6526 k!10423
c 6527 k!10424
c 6528 k!10425
c 6529 k!10426
c 6530 k!10427
c 6531 k!10428
c 6532 k!10429
c 6533 k!10430
c 6534 k!10431
c 6535 k!10432
c 6536 k!10433
c 6537 k!10434
c 6538 k!10435
c 6539 k!10436
c 6540 k!10437
c 6541 k!10438
c 6542 k!10439
c 6543 k!10440
c 6544 k!10441
c 6545 k!10442
c 6546 k!10443
c 6547 k!10444
c 6548 k!10445
c 6549 k!10446
c 6550 k!10447
c 6551 k!10448
c 6552 k!10449
c 6553 k!10450
c 6554 k!10451
c 6555 k!10452
c 6556 k!10453
c 6557 k!10454
c 6558 k!10455
c 6559 k!10456
c 6560 k!10457
c 6561 k!10458
c 6562 k!10459
c 6563 k!10460
c 6564 k!10461
c 6565 k!10462
c 6566 k!10463
c 6567 k!10464
c 6568 k!10465
c 6569 k!10466
c 6570 k!10467
c 6571 k!10468
c 6572 k!10469
c 6573 k!10470
c 6574 k!10471
c 6575 k!10472
c 6576 k!10473
c 6577 k!10474
c 6578 k!10475
c 6579 k!10476
c 6580 k!10477
c 6581 k!10478
c 6582 k!10479
c 6583 k!10480
c 6584 k!10481
c 6585 k!10482
c 6586 k!10483
c 6587 k!10484
c 6588 k!10485
c 6589 k!10486
c 6590 k!10487
c 6591 k!10488
c 6592 k!10489
c 6593 k!10490
c 6594 k!10491
c 6595 k!10492
c 6596 k!10493
c 6597 k!10494
c 6598 k!10495
c 6599 k!10496
c 6600 k!10497
c 6601 k!10498
c 6602 k!10499
c 6603 k!10500
c 6604 k!10501
c 6605 k!10502
c 6606 k!10503
c 6607 k!10504
c 6608 k!10505
c 6609 k!10506
c 6610 k!10507
c 6611 k!10508
c 6612 k!10509
c 6613 k!10510
c 6614 k!10511
c 6615 k!10512
c 6616 k!10513
c 6617 k!10514
c 6618 k!10515
c 6619 k!10516
c 6620 k!10517
c 6621 k!10518
c 6622 k!10519
c 6623 k!10520
c 6624 k!10521
c 6625 k!10522
c 6626 k!10523
c 6627 k!10524
c 6628 k!10525
c 6629 k!10526
c 6630 k!10527
c 6631 k!10528
c 6632 k!10529
c 6633 k!10530
c 6634 k!10531
c 6635 k!10532
c 6636 k!10533
c 6637 k!10534
c 6638 k!10535
c 6639 k!10536
c 6640 k!10537
c 6641 k!10538
c 6642 k!10539
c 6643 k!10540
c 6644 k!10541
c 6645 k!10542
c 6646 k!10543
c 6647 k!10544
c 6648 k!10545
c 6649 k!10546
c 6650 k!10547
c 6651 k!10548
c 6652 k!10549
c 6978 k!10550
c 6982 k!10551
c 6991 k!10552
c 6995 k!10553
c 7009 k!10554
c 7013 k!10555
c 7022 k!10556
c 7027 k!10557
c 7028 k!10558